LAMMPS data file via write_data, version 22 Jul 2025, timestep = 4000115, units = real

3996 atoms
3 atom types

0.7144675915403766 36.66223240845872 xlo xhi
0.7144675915403766 36.66223240845872 ylo yhi
0.7144675915403766 36.66223240845872 zlo zhi

Masses

1 1.008
2 12.011
3 15.999

Atoms # full/kk

1055 88 1 0 1.3819501529041525 7.307867673499583 3.13661490163116 2 1 -1
1153 97 2 0 7.458146275267758 36.495171173523865 6.390750994161593 3 -1 1
1159 97 1 0 7.184225292679827 36.04838892076359 7.318604943210094 3 -1 1
1161 97 1 0 6.630385742676268 0.741877243126808 5.722653867334316 3 0 1
3333 278 1 0 0.9676595947004555 36.60979559402298 2.215048228830439 1 1 -2
3328 278 3 0 3.76087522447134 36.506198982844126 4.139667689953706 1 1 -2
2645 221 3 0 6.5019923259687085 1.7105371000490035 2.499897614186585 3 2 1
3332 278 1 0 2.688338803109776 0.7838045562169984 2.17703035781915 1 2 -2
3325 278 2 0 1.792894162713901 1.316687592557929 2.482026258958538 1 2 -2
3336 278 1 0 4.517650094552986 1.4650294565034914 6.496259945919338 1 2 -2
3329 278 3 0 2.508814409161335 1.344333489036462 5.89476648520325 1 2 -2
1859 155 1 0 3.781687260779851 5.028385143679748 5.3834935901772765 2 0 0
1860 155 1 0 2.4002649382838825 6.22879203074841 5.0275508417942145 2 0 0
1858 155 1 0 1.9716736106998007 4.630111708368563 5.615345682698505 2 0 0
1854 155 2 0 2.710938260197202 5.158939960803205 4.968643858140024 2 0 0
1852 155 3 0 4.450900715881492 5.871762680655157 3.0637936833607937 2 0 0
1853 155 3 0 2.7064902825131094 4.554400958745055 3.6902655601155847 2 0 0
1851 155 2 0 3.5882818903112907 5.054568868098259 2.8041857141115636 2 0 0
1850 155 3 0 3.345419970890677 4.462478721334525 1.6483205144784159 2 0 0
3327 278 2 0 2.761677141118862 1.1027660103125858 4.63700923914974 1 2 -2
3326 278 3 0 1.7346244431629758 1.5958466014210162 3.884834302572356 1 2 -2
2428 203 3 0 7.008073215383797 3.7491165231018084 7.531669850577118 -1 1 -2
2709 226 1 0 7.804994761736482 7.236630754811991 2.3149060652015514 1 0 0
2430 203 2 0 7.258873219441085 5.856342982175839 5.720808241563781 -1 1 -2
2435 203 1 0 7.542596986651103 5.419467652358239 4.736763527701869 -1 1 -2
2436 203 1 0 6.211320048405373 5.612145985905903 5.896049374878121 -1 1 -2
3331 278 1 0 1.7830281531619787 2.3952968615079673 2.04339388747797 1 2 -2
1160 97 1 0 7.952024251541088 1.5395964270536184 6.6088405854181955 3 0 1
2426 203 3 0 9.265685835461673 4.107877141176552 8.044641585625879 -1 1 -2
2647 221 1 0 9.956332992688628 3.0173537391084517 3.1552067538523145 3 2 1
1081 91 2 0 12.71495456208928 1.4408066580517076 6.2332759710425 1 1 1
1089 91 1 0 11.609850327317215 1.452931498508174 6.289249602618241 1 1 1
1087 91 1 0 12.963026255332375 1.6528088758071957 5.1523231089493695 1 1 1
2643 221 2 0 7.803757772040468 2.0226792372717415 2.7125414568490194 3 2 1
2644 221 3 0 8.813634324756393 1.3468529683753132 2.451795654600064 3 2 1
1665 139 1 0 11.670910851522422 36.49774111474973 2.7913945862334475 1 -2 1
3990 333 2 0 12.063800486298536 6.655119944394356 1.4611217019682992 1 0 -1
3989 333 3 0 12.999930111156631 7.419875630993147 0.7256851080637432 1 0 -1
2701 226 2 0 8.27958921673729 7.196634780209338 1.3286370741547784 1 0 0
3996 333 1 0 12.501347253808946 5.8029543772415 1.9848703872533218 1 0 -1
2649 221 1 0 9.218562000850323 3.4296754362787785 4.762249531300524 3 2 1
1657 139 2 0 12.728534285695538 36.55337141186403 2.5509540272515494 1 -2 1
2648 221 1 0 9.197171965529476 4.595418512046923 3.4277558053963673 3 2 1
2642 221 3 0 7.914961349619087 3.2006699509736376 3.289138498604014 3 2 1
3995 333 1 0 11.380220379228152 6.365698769954258 36.6379283879364 1 0 -2
2429 203 3 0 8.200350661906546 5.4919110488046465 6.696218382639562 -1 1 -2
3994 333 1 0 11.515265911623747 7.305109697482377 2.1943608993779242 1 0 -1
2427 203 2 0 8.079480609470949 4.3705316806317915 7.460386562628904 -1 1 -2
2434 203 1 0 7.289967062391246 6.981482439843602 5.617407436945483 -1 1 -2
1658 139 3 0 13.131021636040638 1.8803528678557586 1.9704288427188057 1 -1 1
1082 91 3 0 13.305853254964319 2.423529671034418 7.154842910735814 1 1 1
2707 226 1 0 9.327435152160085 7.44867494698362 1.345303376839721 1 0 0
1270 106 1 0 10.523945079068591 5.978529401608025 5.9760671738307956 0 3 1
2641 221 2 0 9.183153058359615 3.5873540015175274 3.7063974655908467 3 2 1
1265 106 3 0 12.506582638832207 6.259842826314976 6.1417139610627824 0 3 1
1263 106 2 0 12.547756944571317 7.51980449984022 5.682358799286221 0 3 1
1266 106 2 0 11.418193432770426 5.434548024374931 5.672477949772099 0 3 1
1271 106 1 0 11.403028660383882 5.29055146430694 4.6002964414684175 0 3 1
1659 139 2 0 12.633484410903092 2.2310860006950968 0.8121118096851563 1 -1 1
1272 106 1 0 11.50767417099494 4.511847496462524 6.211388146082505 0 3 1
912 76 1 0 15.073248245094693 5.8913447476037 4.760005322400974 -2 2 3
2220 185 1 0 14.610457640485153 5.5404825614212125 8.376955697739298 0 1 -1
3968 331 1 0 14.675570456344262 3.611420738032808 6.031077412349552 -2 1 1
279 24 2 0 21.48181473295558 2.626029752277283 1.4886060429454981 0 0 1
278 24 3 0 21.807043177550366 1.2944012280601376 1.2501364823604677 0 0 1
904 76 3 0 16.828298810238387 7.38822807263782 1.811021357172275 -2 2 3
903 76 2 0 16.178625716020143 6.382633461889069 1.7810770937106626 -2 2 3
281 24 3 0 22.296187762513267 3.38724315541327 0.8080722035565163 0 0 1
646 54 1 0 20.23226224821907 7.4634940700313805 1.9377915405511674 -1 1 0
181 16 2 0 21.70932776767563 1.399305062044435 5.405605536744052 0 2 0
280 24 3 0 20.530570356889402 2.938534724461332 2.130943010156275 0 0 1
188 16 1 0 21.414974565654394 1.684724464856065 4.400635633302434 0 2 0
189 16 1 0 21.041517882338482 1.8525432229661432 6.151163655894051 0 2 0
3964 331 3 0 17.376491838387988 2.03440366543682 4.076586001755334 -2 1 1
3969 331 1 0 16.2505439529916 3.9177688606620595 5.347976494952981 -2 1 1
3963 331 2 0 16.854214387758095 1.5277757684983184 4.985432105245889 -2 1 1
2519 210 1 0 16.300102316702976 0.8676630619251089 1.7718852106368876 1 0 1
2518 210 1 0 15.810685615414174 2.5402890073148963 2.0407513861630973 1 0 1
911 76 1 0 15.137925181255103 7.518870071876509 3.964214441444336 -2 2 3
910 76 1 0 16.70215923983786 6.6776549512343655 4.363484223377211 -2 2 3
2520 210 1 0 17.53777375961205 2.3249900748331735 1.6113276876979432 1 0 1
906 76 2 0 15.625532312287158 6.5352019913362005 4.040301251225975 -2 2 3
2514 210 2 0 16.521978845658925 1.92169620421296 1.4743829145039045 1 0 1
2214 185 2 0 15.264935284398728 6.045165069490518 7.708744251305751 0 1 -1
2584 216 3 0 20.066844133705278 7.441997906687451 4.729344223141989 0 1 1
3967 331 1 0 14.86917239374694 3.3449476894278285 4.321645513122762 -2 1 1
2213 185 3 0 16.57855580935048 5.388321370122288 7.648747083519387 0 1 -1
282 24 2 0 22.352838389637782 4.817314347096528 1.1329451189624158 0 0 1
3961 331 2 0 15.401496785395334 3.264194357069103 5.302678214939876 -2 1 1
286 24 1 0 21.40680876320108 5.305929259815654 0.7442415270522243 0 0 1
2589 216 1 0 19.390943917833916 5.497641298404895 3.7677387202734067 0 1 1
2581 216 2 0 19.68324336882577 4.768813681159603 4.503779816029527 0 1 1
2587 216 1 0 20.108742803978707 3.9225663525519057 3.9187741648359875 0 1 1
2588 216 1 0 18.91606880322172 4.421596759668556 5.1097064850414675 0 1 1
3962 331 3 0 15.717703586366602 1.958221468495 5.6049009551417805 -2 1 1
2582 216 3 0 20.682993173961243 5.394348638821837 5.375651033762557 0 1 1
905 76 3 0 15.512856239316326 5.877051273148568 2.797043653912093 -2 2 3
2583 216 2 0 20.88785634544602 6.7008282295823705 5.168430388786483 0 1 1
2585 216 3 0 22.104979282342214 7.011291419154684 5.630392702573127 0 1 1
2210 185 3 0 17.96468109560155 3.868732504827203 8.23205202299317 0 1 -1
92 8 1 0 20.812253640606794 3.730325093243125 7.048394049587391 1 2 -1
2219 185 1 0 14.855361184269217 5.938521584317861 6.704467653251472 0 1 -1
798 67 2 0 29.29845951403865 1.5327362832125118 1.2543126548688528 -1 0 -1
88 8 3 0 23.236198622750255 2.277566866308942 8.169854486243638 1 2 -1
187 16 1 0 22.724061718042957 1.7539764955505484 5.578243682771617 0 2 0
2753 230 3 0 26.467716593919576 6.033040975628435 1.909400054856136 1 -1 0
803 67 1 0 29.331250861386934 2.322602287556829 2.040573268359592 -1 0 -1
3487 291 1 0 24.108940663489992 0.8411215826409746 2.7177245528853304 1 1 1
804 67 1 0 29.317391680410605 2.0220247534208178 36.251153757766765 -1 0 -2
3491 291 1 0 24.385437222042324 4.899756009098864 6.415315887181587 1 1 1
3488 291 1 0 25.425037642071377 1.5902921450589205 1.8091292255152756 1 1 1
2329 195 2 0 28.531684628979882 1.280096518511889 5.246558734073756 -1 1 0
3482 291 3 0 25.536651910111495 1.9016476791105186 3.8550206601664025 1 1 1
3481 291 2 0 25.177246596891194 1.0719403211748448 2.7302166405909265 1 1 1
2335 195 1 0 28.673663842711004 1.7322634806702675 4.235483722152536 -1 1 0
2337 195 1 0 28.53524299298937 2.222336683404316 5.978679044828482 -1 1 0
287 24 1 0 22.511717713948062 5.007500203715493 2.200404573643059 0 0 1
3485 291 3 0 25.245795429687796 3.7296078961127184 5.037402890335941 1 1 1
3490 291 1 0 23.573976200258997 4.966384088874895 4.82703684030669 1 1 1
3486 291 2 0 24.518655094524625 4.990018929453077 5.316266572242766 1 1 1
3492 291 1 0 25.135768899992307 5.8508371681350475 5.07424965446107 1 1 1
2752 230 3 0 27.420011773944267 4.097894920775875 2.413952043481804 1 -1 0
3484 291 3 0 23.816713763254736 3.2985591716964877 3.2896353107426135 1 1 1
3483 291 2 0 24.801326200525725 3.025548953078665 3.9839673958232606 1 1 1
2751 230 2 0 27.244722527453618 5.225780352662932 2.641627573003613 1 -1 0
3955 330 1 0 25.3294993088445 8.639634415056468 4.979023563280366 -1 1 0
2749 230 2 0 27.940471960703327 5.189263998445544 4.915179269792971 1 -1 0
1116 93 1 0 27.02210891436684 4.1391113265815624 7.7978199847538185 1 1 0
2755 230 1 0 28.14570487156233 5.983043784714536 5.690067861000089 1 -1 0
2757 230 1 0 28.854654856849457 4.660917348813527 4.614436137903218 1 -1 0
2756 230 1 0 27.19456163595383 4.431279937131049 5.203296286032133 1 -1 0
2750 230 3 0 27.573040892002467 5.911466832487461 3.7408182551677864 1 -1 0
2692 225 3 0 30.32687911292411 5.043106549097642 6.435749047027667 1 0 -1
1047 88 2 0 35.66098717037264 5.25846039505298 3.8883945471573447 1 1 -1
799 67 1 0 34.16737003595601 1.4448559432608312 1.9925465392862263 -1 0 -1
627 53 2 0 32.8426956906133 1.3705188677509295 7.915780885226501 -1 1 0
2695 225 1 0 30.315128308983997 7.256921025678222 7.518268947895578 1 0 -1
227 19 1 0 31.27547748737736 4.992720991605411 1.2086184366066623 -2 -1 -2
1048 88 3 0 35.89524264606121 5.688727882964734 4.972504601394085 1 1 -1
629 53 3 0 32.764431258899094 1.1140972334280623 6.6057988152744365 -1 1 0
1051 88 1 0 34.46320540692681 2.2922456706515324 4.269370615084017 1 1 -1
221 19 3 0 30.785156524332425 6.707192478279121 2.391581014284013 -2 -1 -2
2698 225 1 0 30.629670518126456 4.483541855508281 4.121936772177969 1 0 -1
2699 225 1 0 32.24729389970657 4.631760881660014 3.4249325431324844 1 0 -1
1052 88 1 0 35.91031413167506 2.848139946367363 5.297357654084655 1 1 -1
719 60 1 0 36.43945598891792 5.893983603719815 7.614034095420048 0 -1 -1
797 67 3 0 30.518106768894352 0.7189273223876143 1.3280042013161286 -1 0 -1
1053 88 1 0 34.332342483601245 3.650666723771959 5.426943793964383 1 1 -1
796 67 3 0 31.741904384420877 2.5356190633980122 1.2789680934735062 -1 0 -1
795 67 2 0 31.657515952611394 1.3479991222354892 1.2544589873729133 -1 0 -1
2700 225 1 0 31.801771490056968 3.213151153455897 4.59053779244473 1 0 -1
2693 225 3 0 32.25189885080414 5.128791031733589 5.273009707051562 1 0 -1
222 19 2 0 30.881895171849777 5.996300647902434 1.0293890956663 -2 -1 -2
2694 225 2 0 31.7105402947112 4.29204611553336 4.3180884750242905 1 0 -1
1049 88 3 0 35.73253011038264 5.889555932796932 2.759573950662332 1 1 -1
2691 225 2 0 31.46022347758697 5.463551013834106 6.325417443927322 1 0 -1
1046 88 3 0 35.463824413335026 3.9200512110067134 3.7013081411478734 1 1 -1
2690 225 3 0 32.079823558757234 6.439385603545096 6.966634077567251 1 0 -1
1045 88 2 0 34.98952135327481 3.132424883642118 4.768210507914472 1 1 -1
219 19 2 0 31.935045359042842 7.090142768075083 3.002709999772045 -2 -1 -2
220 19 3 0 33.04416368571158 6.780870075428258 2.636771469722311 -2 -1 -2
1050 88 2 0 36.24774740924436 7.229698860293019 2.774403262116164 1 1 -1
1056 88 1 0 36.09996552005564 7.620669260616702 1.7576804898617866 1 1 -1
1054 88 1 0 35.7161969271136 7.718025930621141 3.6261351204130072 1 1 -1
2407 201 1 0 36.02073698412788 1.6929796940608275 8.076115610351179 -2 -1 0
2386 199 1 0 3.8333375557810316 8.77311058594162 7.585355416457683 -1 0 0
3479 290 1 0 1.5223129535021225 11.056727096578866 1.5598103294860204 -1 -1 1
1504 126 3 0 5.467144169740753 9.305646522981213 2.0072333703542986 -1 -1 1
1507 126 1 0 4.188599052151605 10.176388201636449 4.157693007356588 -1 -1 1
1509 126 1 0 4.765710444947582 8.623016267311057 4.320169490914894 -1 -1 1
1353 113 1 0 4.261888462288012 11.58866170919134 7.212514693386297 2 1 2
753 63 1 0 5.57032267399124 11.847778686854522 1.7520789642516654 0 0 -1
1351 113 1 0 5.4460629429226595 12.76888248812098 7.755276819973384 2 1 2
754 63 1 0 2.0589441527698256 13.169256537732869 6.607483713367851 0 0 -1
1508 126 1 0 2.954383489222077 9.110904220889134 4.832709160403902 -1 -1 1
756 63 1 0 1.1689026409637675 13.209354747572577 5.137900311150781 0 0 -1
748 63 3 0 3.029338440082574 13.897359912277832 3.0426955007856415 0 0 -1
755 63 1 0 2.2825897012527836 14.613941100779348 5.437944833319647 0 0 -1
750 63 2 0 2.151986243807989 13.467880615269905 5.531200299458127 0 0 -1
3658 305 1 0 7.3113797603995865 13.945187309771027 5.55368115836169 1 -1 -1
749 63 3 0 3.2762083255843373 12.759991799818001 5.020424992004575 0 0 -1
3654 305 2 0 6.567116935342188 14.78749795084137 5.690165482891264 1 -1 -1
751 63 1 0 4.91801346791621 13.635757315190187 1.8246094505002988 0 0 -1
745 63 2 0 5.470345050577433 12.805286189675314 2.298834000055369 0 0 -1
2381 199 3 0 1.8265776285379567 8.871093668744622 7.2293831221882705 -1 0 0
1503 126 2 0 4.329677792512555 8.921437161419824 1.8295641071668403 -1 -1 1
3660 305 1 0 6.485859833283179 15.451539482979 4.802418191490664 1 -1 -1
1502 126 3 0 3.319324951482866 8.87914994319765 2.7424711682275054 -1 -1 1
1501 126 2 0 3.8235031297568427 9.14112917510279 4.074680288155385 -1 -1 1
747 63 2 0 3.6645621568965234 13.175043861297564 3.790162459637153 0 0 -1
746 63 3 0 4.738000836576537 12.516248229795869 3.4707897923372943 0 0 -1
752 63 1 0 6.494363868978717 13.108959620271735 2.590721068553793 0 0 -1
1352 113 1 0 6.010242894281721 11.074893508698366 7.403498642469745 2 1 2
1345 113 2 0 5.156054364826959 11.714351521295722 7.809682811779033 2 1 2
2379 199 2 0 1.2239684625359826 9.931844013993997 6.76578236618896 -1 0 0
3659 305 1 0 5.57635670522381 14.41022357618535 5.947722951509461 1 -1 -1
2380 199 3 0 1.1937528687836934 11.008738940740935 7.279390770559891 -1 0 0
983 82 1 0 7.507513724377962 9.10501011959052 4.068883577691372 0 0 1
982 82 1 0 7.3805663049125165 10.578626772223137 5.005094238012584 0 0 1
984 82 1 0 6.851138038412667 9.034793777380628 5.776198790234149 0 0 1
978 82 2 0 7.573551306755966 9.473393343936484 5.069389653478231 0 0 1
1296 108 1 0 8.506717672231533 11.794580265153087 1.4586818178188068 0 -1 1
3215 268 1 0 11.776633805644442 14.28559800896248 36.49684347396787 -1 1 0
3987 333 2 0 13.799623153761686 8.25271442165938 1.3690430901791941 1 0 -1
1003 84 1 0 14.593840551249603 13.523135638307684 7.8122156285596756 -1 1 1
3988 333 3 0 13.916969593290721 8.335210904890817 2.54921243654587 1 0 -1
1264 106 3 0 11.999562202509367 7.868201485780712 4.648144837773222 0 3 1
2290 191 1 0 11.492552662852532 10.623244222173932 1.4092248816624071 -1 0 0
1262 106 3 0 13.306244082445216 8.215965624635272 6.482593653891013 0 3 1
2284 191 3 0 9.235485992788155 12.093115529319993 3.887717898058501 -1 0 0
2291 191 1 0 11.507535401764867 9.73031524432175 3.048207075339929 -1 0 0
2282 191 3 0 10.862506424575253 13.649318762074397 3.773487019171819 -1 0 0
562 47 1 0 9.590088809604323 15.608949442182343 7.4868153833644175 -2 2 -2
2286 191 2 0 11.04966901738132 10.428796689742358 2.361602423637208 -1 0 0
564 47 1 0 10.15917030038886 14.006569409519061 7.500324826168483 -2 2 -2
979 82 1 0 10.807210121124266 11.541254531945405 7.876510762383098 0 0 1
558 47 2 0 10.504229151292547 15.005436512022799 7.475450993697491 -2 2 -2
975 82 2 0 9.205938646421707 9.947272330172135 6.531281980625347 0 0 1
2292 191 1 0 9.92080529525431 10.325324032099656 2.307905196610033 -1 0 0
976 82 3 0 8.437024652066516 10.481732252015165 7.316739501172608 0 0 1
2283 191 2 0 10.353707681099012 12.450224018888687 3.5447335092405003 -1 0 0
997 84 2 0 14.999300468876921 12.590734265647619 7.978847467911003 -1 1 1
974 82 3 0 10.541172848625363 9.89442619879361 6.7289091557574965 0 0 1
977 82 3 0 8.90595345934748 9.26616235074122 5.434885108683218 0 0 1
2285 191 3 0 11.327058846414577 11.764114688604804 2.9364050181509715 -1 0 0
2289 191 1 0 9.464854689282758 14.473378577282809 5.152239010826466 -1 0 0
1267 106 1 0 12.76825389210579 10.19539941571726 6.120333094751535 0 3 1
2281 191 2 0 9.892802279382202 14.646478047402054 4.1650156132240195 -1 0 0
2530 211 1 0 14.62603378949414 14.487426252898286 3.3721574584942946 -1 0 -1
2531 211 1 0 15.471085516181361 14.065822129863932 4.99121464095545 -1 0 -1
1268 106 1 0 14.448268969415771 9.90525910679875 6.744963615895406 0 3 1
1261 106 2 0 13.627624503688816 9.566247805436259 6.0808297859518365 0 3 1
1005 84 1 0 14.176220782384034 12.050336121093215 8.365638170740187 -1 1 1
1269 106 1 0 14.013925868251972 9.45629852710483 4.969731070268561 0 3 1
1094 92 3 0 18.258378573831145 15.08925167547504 36.58035888601233 1 1 0
642 54 2 0 20.391633670837578 8.114606947969015 1.0735058483015911 -1 1 0
647 54 1 0 20.106862912495128 9.163619021645765 1.2527241087144978 -1 1 0
1331 111 1 0 22.594789614495504 11.428932621028114 3.614436428720639 -3 0 0
2529 211 1 0 19.45215192593743 11.207368822274148 4.279568001118884 -1 0 -1
3992 333 1 0 15.440442325329498 9.998120546434933 1.9741177334116324 1 0 -1
1004 84 1 0 15.435435271795566 12.16337853119585 7.030789997711522 -1 1 1
2526 211 2 0 15.578229995408066 14.510890791677918 3.9451162398515423 -1 0 -1
350 30 3 0 20.746567091994773 15.069944285940126 5.469640120121387 1 0 2
355 30 1 0 19.254822530425457 14.96283433521267 6.87156248296033 1 0 2
1000 84 3 0 17.14056747483629 14.138186217752303 7.653196427541425 -1 1 1
2592 216 1 0 21.58457857708377 8.845273425848507 6.14178342396262 0 1 1
2527 211 1 0 18.36014607478205 10.435791269414791 3.075993762617756 -1 0 -1
2532 211 1 0 15.91744985328596 15.515894205641084 4.018038118111142 -1 0 -1
3143 262 1 0 17.191076632890415 9.782252547132824 6.3365189164761535 0 0 2
2524 211 3 0 16.620939424857305 11.785397775270434 4.446403673984957 -1 0 -1
3142 262 1 0 16.948638334615346 8.1821633510833 7.105857444808732 0 0 2
3138 262 2 0 17.613522523334275 9.026656196510011 7.022636926523075 0 0 2
3144 262 1 0 18.496691444731987 8.661650374862841 6.581807369028829 0 0 2
2528 211 1 0 19.75841831320743 11.347896445901368 2.488729582759253 -1 0 -1
1326 111 2 0 22.417879262209578 12.587672607838186 3.4041315542958177 -3 0 0
1330 111 1 0 21.44015332766417 12.786492500811997 3.1247461735896738 -3 0 0
2521 211 2 0 18.985817445360162 11.269922769620983 3.2002010947725528 -1 0 -1
2522 211 3 0 18.24850032025482 12.500732885786842 3.0688969146798777 -1 0 -1
2525 211 3 0 16.477325625853727 13.72695750036479 3.1407562199671317 -1 0 -1
2523 211 2 0 17.02554768015961 12.62780915351039 3.6157233495215846 -1 0 -1
2591 216 1 0 22.448168480130768 8.760208668099356 4.5052601980945886 0 1 1
639 54 2 0 22.611133747065395 8.581396407074907 1.3371570891915578 -1 1 0
1196 100 1 0 27.930171627576275 8.121204808587017 2.0875707072032825 -2 -1 1
672 56 1 0 25.3330802969597 13.659555192232311 1.9166454459964004 0 1 0
1325 111 3 0 23.23578899123656 12.78222556769793 2.209042264859848 -3 0 0
662 56 3 0 25.8569316942192 13.092660004242347 5.334124515074852 0 1 0
637 54 2 0 24.846649642202532 9.231615209653592 1.3766055715695966 -1 1 0
1195 100 1 0 29.520813136720037 8.90703930871094 2.158817589083535 -2 -1 1
3952 330 3 0 28.74025744082305 9.679896332053914 6.37024543109131 -1 1 0
3951 330 2 0 27.744665104306986 9.358063391425793 7.0254111551809215 -1 1 0
1323 111 2 0 22.87240879305245 12.088795841560234 1.1337735782017668 -3 0 0
661 56 2 0 25.474977018174652 11.992036383517258 6.132821554045945 0 1 0
663 56 2 0 26.066709446181676 12.814928422222449 4.014292035291339 0 1 0
665 56 3 0 26.72088524605385 13.850917929941618 3.4130606812584627 0 1 0
2815 235 1 0 26.4030702796001 14.082693705800038 7.51155011625255 1 2 0
664 56 3 0 25.660927963141866 11.81719481313577 3.469025016425044 0 1 0
666 56 2 0 26.440689360021494 13.84813171843831 2.019037408156467 0 1 0
669 56 1 0 25.085964124970143 11.170888435344748 5.563572481608123 0 1 0
2817 235 1 0 28.081562815841163 13.846423637194144 6.701330032698803 1 2 0
2809 235 2 0 27.481892937844304 14.243904004235874 7.623237064020982 1 2 0
668 56 1 0 24.608867593609368 12.234003120188499 6.812777665332765 0 1 0
667 56 1 0 26.295931834426153 11.612052119154514 6.772628776451782 0 1 0
670 56 1 0 26.691285591529923 14.782732802385773 1.549534560567529 0 1 0
1190 100 3 0 28.188381185732773 9.741969228199194 0.7382997446403173 -2 -1 1
671 56 1 0 27.029170590368878 13.156573702344467 1.3772126634769168 0 1 0
2590 216 1 0 23.305719751387247 8.534517678590289 6.108430129008343 0 1 1
2586 216 2 0 22.383521426086432 8.433953793045761 5.542041830871477 0 1 1
3957 330 1 0 26.958622970190078 7.718761594832347 4.689141823146021 -1 1 0
1189 100 2 0 28.715843735763844 8.566283117432768 1.4877267583909364 -2 -1 1
1332 111 1 0 22.85368238230637 13.23880084781958 4.166604521099658 -3 0 0
3950 330 3 0 26.565693657608275 8.928735558465716 6.489717742194864 -1 1 0
645 54 1 0 25.044868821295385 8.343463420619514 1.938208147160916 -1 1 0
644 54 1 0 24.645097816856634 10.205036502982951 1.795191431886894 -1 1 0
3956 330 1 0 26.83739743084187 9.633745154305757 4.594792416483585 -1 1 0
3949 330 2 0 26.465211828470636 8.676774181337423 5.0837444285362325 -1 1 0
640 54 3 0 22.534736592929132 8.730181596649784 2.5343052802873496 -1 1 0
1197 100 1 0 29.222978261503112 7.966927576341312 0.7778287484084158 -2 -1 1
224 19 1 0 32.35350133260233 9.47996055824208 4.9742076825319534 -2 -1 -2
223 19 1 0 33.55209560486316 8.505670679470477 4.017321873031808 -2 -1 -2
3480 290 1 0 35.89178825798125 11.983783935173603 1.8762892836172635 -2 -1 1
3835 320 1 0 30.354891697958173 12.07073000900687 3.8319776886336334 0 1 -1
3474 290 2 0 36.648909419521985 11.648908959380595 1.1591823077818146 -2 -1 1
3984 332 1 0 30.64402846643887 14.668189421719257 6.40647103455936 -1 1 1
157 14 2 0 34.713943113655795 13.551320299556632 8.146456636103615 -1 -1 -1
3840 320 1 0 35.185103109263466 14.820211886909552 2.1139673835008264 0 1 -1
3982 332 1 0 32.18871275702131 14.898450972962074 5.481778978809479 -1 1 1
3838 320 1 0 34.448588085030565 15.313036769793625 3.6242648104435014 0 1 -1
218 19 3 0 31.579009019005962 7.846467688338881 4.103639866532256 -2 -1 -2
660 55 1 0 31.76973520378291 11.99609849807654 6.0948989556710105 1 -1 0
3834 320 2 0 35.01050926865049 14.484353288681467 3.1935078752665773 0 1 -1
3836 320 1 0 30.62002766397336 12.995277416582018 2.3429623069160614 0 1 -1
164 14 1 0 33.88230961890224 13.876350569717989 7.426735768024828 -1 -1 -1
3837 320 1 0 30.90925698487971 11.181740546764605 2.4062862587710603 0 1 -1
3829 320 2 0 30.959650777533287 12.113137666663379 2.9531087010059194 0 1 -1
2383 199 1 0 35.18569945546622 11.19989493602993 5.577591629970721 -2 0 0
2384 199 1 0 36.48090074171114 11.097187021850454 4.344175861789928 -2 0 0
2377 199 2 0 35.7925473677939 10.546319703376875 4.929234751126556 -2 0 0
2385 199 1 0 35.14536990460851 10.030190399835474 4.220514674951827 -2 0 0
3830 320 3 0 32.334457474949524 12.309624071180984 3.3136509317520577 0 1 -1
2378 199 3 0 36.55127672918274 9.536494081430849 5.672639982563688 -2 0 0
3833 320 3 0 34.26038752761123 13.277997366400248 3.329622158224803 0 1 -1
217 19 2 0 32.69390186360424 8.484050607424484 4.737222055935251 -2 -1 -2
225 19 1 0 32.863994590809234 7.946353685925613 5.6367480993436425 -2 -1 -2
3831 320 2 0 33.069990749816434 13.282198281127455 2.7660692198805767 0 1 -1
3832 320 3 0 32.68999040987757 14.087662254438776 1.9514045749827764 0 1 -1
653 55 3 0 32.897994906590014 11.32218205586798 7.696562103382249 1 -1 0
658 55 1 0 30.86332353727811 10.897739522103821 7.26914498387543 1 -1 0
654 55 2 0 31.615972067414784 11.66251588268517 7.166744738584458 1 -1 0
3839 320 1 0 35.9908058357317 14.415655449702928 3.644243693538736 0 1 -1
3656 305 1 0 5.944232890980176 19.146980753412993 7.5469716355778145 1 -1 -1
178 15 1 0 3.006722104751003 16.604661232404204 2.594080681335317 -1 -1 0
3651 305 2 0 6.466453463082994 16.71784603802093 7.029185590444488 1 -1 -1
3653 305 3 0 7.050615559351926 15.506884275361848 6.860342849922535 1 -1 -1
174 15 2 0 3.326226779882079 16.447130357549373 1.5315949745276998 -1 -1 0
172 15 3 0 6.052886311982178 15.520408411337632 2.192968524105214 -1 -1 0
173 15 3 0 4.602558035213762 17.142443819483983 1.38886815635308 -1 -1 0
3652 305 3 0 5.739123178865451 17.24167810133669 6.184294392639254 1 -1 -1
2359 197 1 0 3.7689995166603207 17.82127238690675 5.0842396426110374 0 2 -1
1956 163 1 0 7.075897865866259 21.931030706959863 5.180424767780587 1 1 0
3684 307 1 0 3.977579064673383 19.998052069518177 2.0509323702767213 -1 1 0
1955 163 1 0 6.000719521387709 20.434472196791923 5.046242469068961 1 1 0
1632 136 1 0 1.2305242057309174 21.464690876871842 2.587067637153441 0 0 0
179 15 1 0 2.624842074275437 16.964671288337527 0.8406999544606263 -1 -1 0
428 36 1 0 4.551115343427506 22.29833901030907 5.725360768876121 -1 -1 0
3678 307 2 0 4.4890736838829 20.34852393538888 1.12960536298881 -1 1 0
3677 307 3 0 5.669612674964416 21.06054757573966 1.4889285677782893 -1 1 0
2361 197 1 0 3.1227368649501637 19.492854294545584 5.399030607280592 0 2 -1
170 15 3 0 6.738546098646983 17.544533060176427 1.5098967560535435 -1 -1 0
171 15 2 0 5.774084332459399 16.6278020488699 1.7258364904568055 -1 -1 0
2360 197 1 0 3.653904448096908 19.037498120578626 3.6977231644071793 0 2 -1
2353 197 2 0 3.245968910645033 18.6817079768291 4.701859265585877 0 2 -1
2354 197 3 0 1.914167991146213 18.016907240154428 4.418585625309668 0 2 -1
3683 307 1 0 4.690569259011596 19.499548115512965 36.44470445862376 -1 1 -1
1954 163 1 0 6.020383362206921 21.536964894013057 3.7603971663669378 1 1 0
1950 163 2 0 6.630474230237278 21.18320006021711 4.548109600074675 1 1 0
1952 163 1 0 11.097468288481462 21.617015337998062 3.204354961047894 1 1 0
1554 130 2 0 13.56145463506096 21.529239963305574 6.457215906926386 1 -1 1
1953 163 1 0 11.351320303556578 20.38291454586525 1.846210910559653 1 1 0
1945 163 2 0 10.694252841093025 21.159212653567508 2.273998261265663 1 1 0
3207 268 2 0 11.989054244730449 16.621121646267493 1.6100285119929145 -1 1 1
3209 268 3 0 10.836302670588832 16.126927824176672 1.1465349656689787 -1 1 1
3205 268 2 0 12.863066140266124 18.408999971084736 2.894554961360777 -1 1 1
1559 130 1 0 14.033756740541273 20.695856954162615 5.936828259365526 1 -1 1
2116 177 3 0 15.059433959165876 20.828610532977144 36.22120199257613 2 -1 0
3208 268 3 0 13.0376661095736 16.012479877686527 1.5033199591050215 -1 1 1
176 15 1 0 7.944290417254216 17.249968001038667 3.243634568502108 -1 -1 0
3213 268 1 0 13.280981358782183 18.871984883078923 2.013576217412428 -1 1 1
2288 191 1 0 9.030805043503113 14.6373895423348 3.456725095863381 -1 0 0
563 47 1 0 11.173392997781047 15.245708261605056 6.659713902115184 -2 2 -2
169 15 2 0 8.003335592411336 17.253305745561242 2.1447260990987957 -1 -1 0
3212 268 1 0 13.601083192644138 17.722080002433234 3.3361025446898003 -1 1 1
3206 268 3 0 11.778853827408312 17.626309297100804 2.4681555292293833 -1 1 1
1557 130 1 0 9.569833972241813 18.614618073727044 5.324934293429811 1 -1 1
1555 130 1 0 9.147407775220856 18.439597478649162 7.099357427159686 1 -1 1
175 15 1 0 8.65105608217612 18.133424116163244 1.9881769393531317 -1 -1 0
177 15 1 0 8.28442505284473 16.240448945984237 1.8421996048935718 -1 -1 0
1947 163 2 0 8.623703744190946 21.257871929092957 3.322446953180384 1 1 0
1946 163 3 0 9.53434611838636 20.42504554893969 2.752061462125613 1 1 0
3211 268 1 0 12.546877329728394 19.130978805207935 3.590626949490667 -1 1 1
1551 130 2 0 11.496884781008498 20.542169629873722 6.341355948651984 1 -1 1
1552 130 3 0 11.24976691643389 20.992493122221592 5.229656953387039 1 -1 1
1556 130 1 0 8.962269903418866 20.108314537770383 6.29564030768377 1 -1 1
1549 130 2 0 9.545797052743273 19.108460158549082 6.297844570681672 1 -1 1
1550 130 3 0 10.872452382118228 19.456701893038836 6.8602473460556945 1 -1 1
1553 130 3 0 12.46519398449607 20.991878654445582 7.159010073562599 1 -1 1
1949 163 3 0 7.681048548612713 20.475477486052803 3.836065876244688 1 1 0
2287 191 1 0 10.475434010852005 15.577923686595156 4.202148997223573 -1 0 0
1895 158 1 0 18.91174471198426 20.315986717288173 7.524503151766572 0 0 0
914 77 3 0 17.952477802548337 18.15023292722007 5.005907104804479 -1 1 0
919 77 1 0 17.08044909881127 18.877309267696123 6.7140632381023995 -1 1 0
3886 324 1 0 16.855521023976745 20.57414268840833 4.001678892386803 1 -2 2
3887 324 1 0 15.099299522428531 21.15348187711999 4.2270608783063635 1 -2 2
352 30 3 0 21.681074548700565 16.67334852861472 6.737347830817762 1 0 2
1889 158 3 0 20.051380222887847 22.127131093303927 6.973257824954723 0 0 0
351 30 2 0 21.768294564228416 15.732851665146052 5.982210234061744 1 0 2
3882 324 2 0 16.145147044837763 21.420028010777255 3.8506400827390466 1 -2 2
1887 158 2 0 21.306952341940917 22.324056696677168 7.368724027782516 0 0 0
23 2 1 0 20.53002757047822 21.748901055799077 3.6539521574549 0 0 0
22 2 1 0 19.589480456474384 22.835210085683276 2.7509405378835843 0 0 0
3880 324 3 0 17.00366570659736 21.41274106165235 6.405001226253785 1 -2 2
920 77 1 0 16.345481898264225 17.385063906895837 6.042035070454626 -1 1 0
913 77 2 0 17.25904496979768 17.92854662723451 6.279023208425102 -1 1 0
921 77 1 0 17.81827621099571 17.286701468904337 6.915143538699385 -1 1 0
3296 275 1 0 20.594626168714377 17.811751052336188 3.8973009103240037 1 0 -1
1896 158 1 0 19.302411140808147 20.575360229808084 5.76154444541145 0 0 0
1894 158 1 0 20.520927543057063 19.97028821930768 6.928010223216332 0 0 0
1890 158 2 0 19.68301404693078 20.71440569195262 6.8273944430589735 0 0 0
3295 275 1 0 21.250802048063253 19.364813663858353 3.2841603422707353 1 0 -1
917 77 3 0 18.103770924313302 18.351435043819404 2.830283793993601 -1 1 0
923 77 1 0 17.80866229544751 19.36860316921263 0.9687106297736804 -1 1 0
3289 275 2 0 21.500568880916266 18.43865020065413 3.8506989583549895 1 0 -1
3888 324 1 0 16.021571091713994 21.721455348377237 2.827989273847137 1 -2 2
3297 275 1 0 21.683455207994292 18.701048831652155 4.8935101524585765 1 0 -1
915 77 2 0 17.312065788883274 17.97719697345449 3.8623267902095813 -1 1 0
916 77 3 0 16.136261818866092 17.693024127447938 3.7015259739768047 -1 1 0
3879 324 2 0 16.964731200200408 22.441962069072375 5.7855357033864765 1 -2 2
1097 92 3 0 20.2935036496569 15.488685784839866 1.1150129546351586 1 1 1
1098 92 2 0 21.686054171738885 15.632721983049846 1.0975106353193052 1 1 1
1888 158 3 0 22.09172313072011 21.40766173829738 7.635550884686867 0 0 0
924 77 1 0 17.844004943132223 17.529808583510786 0.9723774389743826 -1 1 0
922 77 1 0 16.384268874827075 18.508990655870964 1.5089706703950554 -1 1 0
918 77 2 0 17.54420995463151 18.44283598018893 1.4798158660048304 -1 1 0
356 30 1 0 19.24663443498619 16.518174351140296 5.893214885237891 1 0 2
349 30 2 0 19.384209183102403 15.47213949767825 5.882339411230917 1 0 2
357 30 1 0 18.71174021065319 15.214273781671599 5.1183060244972385 1 0 2
359 30 1 0 24.291864261903417 16.787250549874386 6.172939219783424 1 0 2
3292 275 3 0 22.69834688532433 19.096884965804794 1.4478710469158251 1 0 -1
3290 275 3 0 22.73899008416246 17.7992943515811 3.384548200086136 1 0 -1
1104 92 1 0 22.03010533439847 15.953795344679452 2.0876528765502194 1 1 1
3291 275 2 0 23.23795049642926 18.326156749642887 2.2441767749538837 1 0 -1
3294 275 2 0 25.323033837840484 18.513105947732704 1.2305366347160487 1 0 -1
3299 275 1 0 26.344978247583327 18.336419078157903 1.453859350319579 1 0 -1
3981 332 1 0 26.629055923445915 16.247960946015468 4.353713941171333 -1 1 1
2849 238 3 0 26.112797181986828 21.01786481821598 5.625965548303399 0 -1 0
3974 332 3 0 28.67710730637908 16.39041656428341 3.7804622416554596 -1 1 1
3973 332 2 0 27.35162485904152 16.950871715393408 3.932910322341209 -1 1 1
354 30 2 0 24.17607945259426 15.9140572939821 5.496580175844803 1 0 2
3980 332 1 0 27.126167342414636 17.13010108683176 2.9115870251357734 -1 1 1
3979 332 1 0 27.3993757564524 17.829576123367406 4.577228944759928 -1 1 1
3298 275 1 0 25.27754201331688 19.625091126831187 1.1790842141534685 1 0 -1
3293 275 3 0 24.468463911652204 17.95565620539885 2.1748194002287673 1 0 -1
3976 332 3 0 29.058771642725436 16.677069391162956 6.026677601481981 -1 1 1
2556 213 1 0 29.488155615483944 18.769720423523733 7.231603946282558 0 -1 1
358 30 1 0 24.323637576541483 16.1715044120524 4.408118127966119 1 0 2
360 30 1 0 24.847724213345053 15.103873138912995 5.867666979613923 1 0 2
3975 332 2 0 29.39032033945326 16.290604290910828 4.929670348357544 -1 1 1
2846 238 3 0 27.712909892435505 21.69458722207827 4.31032494090202 0 -1 0
2851 238 1 0 28.473891052451794 20.614940527741584 2.811439598067589 0 -1 0
2855 238 1 0 24.56952260826277 20.212598834837575 6.845188833335606 0 -1 0
2854 238 1 0 24.77277833058192 19.488734756761616 5.347885750310374 0 -1 0
2856 238 1 0 24.068031548739942 21.15446226679221 5.362893204858584 0 -1 0
2847 238 2 0 26.610211309761162 20.925487193714122 4.386797754142962 0 -1 0
2850 238 2 0 24.762734357664858 20.453910316670278 5.83077527371002 0 -1 0
2848 238 3 0 26.192479524093887 20.276460319470488 3.485115517635074 0 -1 0
2852 238 1 0 27.450949367777508 21.81782150339646 2.27010581835923 0 -1 0
2845 238 2 0 28.245073932385523 21.639553471949487 2.9885795621301674 0 -1 0
353 30 3 0 22.92856939680166 15.2451827198919 5.496393471759467 1 0 2
2554 213 1 0 30.966620875607 19.57253251193766 7.86595862861558 0 -1 1
2550 213 2 0 30.322591453636395 19.38646301672326 7.0380810204338635 0 -1 1
2460 205 1 0 30.047968380582216 15.8286920989302 1.0789459469608778 -1 0 0
3977 332 3 0 30.545090815765423 15.657439133351268 4.61616608649092 -1 1 1
2459 205 1 0 31.591936807159346 16.065832116017383 36.086031676842566 -1 0 -1
2824 236 3 0 31.226943761140816 22.207664001975946 0.8916370746634305 0 -1 -1
2356 197 3 0 0.805462563990659 19.38868460754996 5.758962210631263 0 2 -1
3978 332 2 0 31.310711500310596 15.337826739954785 5.846804825505874 -1 1 1
2548 213 3 0 29.839430667145837 18.98219134498423 4.509643310412074 0 -1 1
2551 213 1 0 31.821744675127736 18.200606718119836 2.1685678281327148 0 -1 1
2545 213 2 0 32.03307379440686 19.060904920298647 2.772982868115208 0 -1 1
2355 197 2 0 0.8657827597012562 18.39263374982112 5.094716184430346 0 2 -1
2553 213 1 0 32.99244169893695 19.463949484363585 2.505339877031994 0 -1 1
2555 213 1 0 29.89107640842655 20.34153167918217 6.687383898381664 0 -1 1
1379 115 1 0 36.110215822327284 21.440466789148154 7.425243906026951 -2 -1 0
960 80 1 0 36.37692849349748 18.918729777930682 1.7738865397949604 -2 0 0
2549 213 3 0 31.28742926975881 18.718106367636288 6.167868213814863 0 -1 1
3983 332 1 0 31.559803375515465 16.298600625032478 6.412080332164847 -1 1 1
2362 197 1 0 34.862120701091015 18.046156421176995 6.666388273597204 -1 2 -1
2546 213 3 0 32.03838829632283 18.649636728175786 4.174305920318686 0 -1 1
2547 213 2 0 30.93396301788857 18.712579334442438 4.914081410423346 0 -1 1
2364 197 1 0 33.90365254470385 17.027124221322605 5.615851508503093 -1 2 -1
2552 213 1 0 31.289177809444425 19.81787076878807 2.607574602260109 0 -1 1
2358 197 2 0 34.59146272596624 17.849525944070518 5.570947725281313 -1 2 -1
2363 197 1 0 34.23208875159138 18.77523506719455 5.06577731004049 -1 2 -1
1624 136 3 0 34.57113777562528 20.880464302137295 3.6742846391915127 -1 0 0
1628 136 1 0 32.461937713854574 22.17089452972726 5.329178696538326 -1 0 0
1623 136 2 0 35.05574297581502 21.710473533683697 4.382924544777084 -1 0 0
1629 136 1 0 33.17471104874347 20.534243527646264 5.741426642078172 -1 0 0
1627 136 1 0 33.19779399813026 21.818851668164374 6.98288141233355 -1 0 0
954 80 2 0 36.488262447157496 19.055315376479186 0.7499688137908588 -2 0 0
1621 136 2 0 33.2722987552048 21.616067386748725 5.918044986055523 -1 0 0
1622 136 3 0 34.52875590103687 22.10050018404495 5.526675055342445 -1 0 0
2832 236 1 0 31.169163418525503 22.27304821975689 3.5193366664445684 0 -1 -1
2357 197 3 0 35.78620437083691 17.51255835381989 4.85655997695003 -1 2 -1
588 49 1 0 0.8493015539646332 24.42819406053528 6.4585146708343455 1 0 0
2276 190 1 0 8.65919086973328 23.758863580921002 5.8855943451714285 1 1 0
2270 190 3 0 7.953687877579753 24.72995800959697 7.653254678347867 1 1 0
896 75 1 0 7.216789000389215 29.473022356024632 2.1510275125677722 0 -1 -1
2272 190 3 0 7.763136044917655 22.40784170640216 7.716051509669121 1 1 0
1626 136 2 0 0.7959304254731779 22.4546262187598 2.882390803354052 0 0 0
2184 182 1 0 4.788419499852679 23.38051825868783 36.49027215364769 1 0 -1
427 36 1 0 4.038415824748829 23.071292189192906 4.170205220156689 -1 -1 0
1631 136 1 0 1.574577415524446 23.191230107659283 2.8920708197176017 0 0 0
1466 123 3 0 6.096706666646281 26.634699649567374 2.789281150055001 1 1 1
1468 123 3 0 4.676498420800164 24.951370415110084 2.4172723457458076 1 1 1
423 36 2 0 4.046686374666564 24.712146956416248 6.9381100777943905 -1 -1 0
1469 123 3 0 4.024541550594655 27.115655922798968 2.4594993411641086 1 1 1
421 36 2 0 3.989367175218587 23.095573189788908 5.277875508535647 -1 -1 0
1465 123 2 0 7.047818492695557 25.521679683788243 2.957697660709896 1 1 1
1147 96 1 0 3.237109244296378 29.12919375315271 5.986685215963449 -2 -1 -1
1474 123 1 0 2.525867842862306 26.098846576150862 1.534089019975538 1 1 1
1467 123 2 0 4.909599879839961 26.132469973905636 2.5306503682378554 1 1 1
425 36 3 0 4.412588866714941 25.909188662980654 7.196037287044715 -1 -1 0
1470 123 2 0 2.611099087547906 26.841803990817382 2.326429168598108 1 1 1
1475 123 1 0 2.324935250444627 26.28840264102341 3.188391558243218 1 1 1
1476 123 1 0 2.0245496491280215 27.661717667592995 2.145329669876384 1 1 1
1472 123 1 0 6.741695401882409 24.947045274391808 3.844202729100076 1 1 1
1149 96 1 0 3.4746398149668094 29.299852267754616 4.231491440637792 -2 -1 -1
1473 123 1 0 7.0912876707129735 24.91942314993286 2.0278118679721278 1 1 1
429 36 1 0 2.9597808226017035 22.891741974409715 5.488217042768347 -1 -1 0
422 36 3 0 4.307287732026604 24.435879825818063 5.659711503224245 -1 -1 0
1141 96 2 0 3.1127479318635385 29.751786523771912 5.143197851172053 -2 -1 -1
1148 96 1 0 2.028797950931749 30.120574828287804 4.9332131130779695 -2 -1 -1
2269 190 2 0 8.723580424923435 24.720125613757062 6.484623556798367 1 1 0
1990 166 1 0 11.477574203637678 29.16023716819472 4.985073160016707 2 0 -1
531 45 2 0 11.52542360456179 27.10839317556054 2.4790090754828173 0 -3 1
530 45 3 0 10.559366918145283 26.231321568333183 2.4580949253135262 0 -3 1
532 45 3 0 12.713620089493416 26.87660657656967 2.635471694607754 0 -3 1
1558 130 1 0 14.229416886670569 21.9063134344716 7.212653407750621 1 -1 1
3364 281 3 0 12.256729438069822 26.65550761943239 6.616636682723498 1 -1 -1
3366 281 2 0 14.58807560537478 25.6500798301639 5.82547268123989 1 -1 -1
3372 281 1 0 13.836713978391032 25.71346635959218 5.07631123278671 1 -1 -1
3365 281 3 0 13.964093998115086 25.17013371877384 6.999123932176208 1 -1 -1
1948 163 3 0 8.67259364202531 22.424953501617008 3.3423381853927863 1 1 0
1560 130 1 0 13.228425220441022 22.267200171054817 5.758948708708628 1 -1 1
1951 163 1 0 10.40659637741751 21.987287202156484 1.5377219612098458 1 1 0
1983 166 2 0 9.062761757655025 28.94480552270396 7.053386101268771 2 0 -1
1982 166 3 0 8.588887748726695 27.718943009324917 7.4494819087284005 2 0 -1
529 45 2 0 10.903100607849774 24.881575409551882 2.582939379083333 0 -3 1
533 45 3 0 10.983760051959614 28.31072272723516 2.3137455902731356 0 -3 1
535 45 1 0 10.36059479306626 24.289199374279594 1.8598490703216244 0 -3 1
536 45 1 0 11.972491159238231 24.803183810515733 2.3987481497864436 0 -3 1
2275 190 1 0 9.792403900415932 24.884337696650864 6.6332471588320105 1 1 0
1985 166 3 0 9.720245617894065 28.74981023196876 5.921116384306485 2 0 -1
2120 177 1 0 14.133663946978094 23.24663831469426 1.334339089313867 2 -1 1
537 45 1 0 10.647079918824529 24.56175518659099 3.6153108913994862 0 -3 1
3363 281 2 0 12.799132870035615 25.840310363706468 7.305783778012685 1 -1 -1
534 45 2 0 11.986320333831467 29.37672134580722 2.010817014252187 0 -3 1
2277 190 1 0 8.502701464835958 25.581598642044813 5.942353294518833 1 1 0
1471 123 1 0 8.018800402154607 25.983380363481437 3.1876624612433786 1 1 1
539 45 1 0 12.62665875029358 29.52359070364736 2.8895046247381977 0 -3 1
2341 196 2 0 20.373003217114668 29.64246286850157 0.961639047947132 1 0 1
2794 233 1 0 16.393131796081004 25.330525739806873 2.3791950815792484 1 0 1
3371 281 1 0 15.473307248899498 24.98679454662076 5.502362956045141 1 -1 -1
3877 324 2 0 17.44410579273035 24.05076076315568 7.487567218574823 1 -2 2
2351 196 1 0 15.491052197078204 28.411125252018326 2.8654590121093517 1 0 1
2789 233 3 0 18.06636893720444 25.57653027453569 1.3722340557605093 1 0 1
3881 324 3 0 16.57891501926151 22.552123554781954 4.512807119012001 1 -2 2
2796 233 1 0 17.745014805732495 24.531205508534534 3.1950733011622887 1 0 1
2345 196 3 0 17.469604086377892 28.814039038009103 2.701686035003012 1 0 1
3370 281 1 0 15.114783374221537 26.57580961382032 6.042576836818443 1 -1 -1
3878 324 3 0 17.233680867382933 23.69295647937194 6.163329195405591 1 -2 2
1886 158 3 0 21.582264070676764 23.69331755267412 7.435629311995205 0 0 0
2795 233 1 0 16.938169037825972 23.770781191007462 1.8121061333330974 1 0 1
2569 215 2 0 19.09318317828877 26.32487594994439 5.259929383833145 1 -1 1
2570 215 3 0 18.151493997032897 27.275701086856824 5.781249691813784 1 -1 1
2572 215 3 0 19.780631500098668 28.767982275505283 6.11830301833599 1 -1 1
2571 215 2 0 18.620426774832538 28.450464639436973 6.118373576555739 1 -1 1
2577 215 1 0 19.410872562587304 26.522853919992816 4.253229907820974 1 -1 1
2575 215 1 0 20.02028134409115 26.1790554536609 5.902485123611342 1 -1 1
2576 215 1 0 18.59343316588033 25.37689483811897 5.382414634275655 1 -1 1
2790 233 2 0 17.28675777241362 24.73106257770938 2.202592302155445 1 0 1
18 2 2 0 20.43937883377812 22.767575396001018 3.3519539481735015 0 0 0
24 2 1 0 20.184104937513446 23.42461188407052 4.164936877060837 0 0 0
17 2 3 0 21.645762513761834 23.206260400450958 2.6706974613326904 0 0 0
3803 317 1 0 22.094425049951216 26.523141494454972 3.792291868564314 0 1 2
2342 196 3 0 19.46211529306947 29.230834339443245 2.01521506427909 1 0 1
3798 317 2 0 21.904729940588588 27.150826911385288 2.8964754017136234 0 1 2
2352 196 1 0 16.03365551508838 29.86902381013851 3.765075677113747 1 0 1
2346 196 2 0 16.161898709273636 29.278759952961632 2.855647924689094 1 0 1
2573 215 3 0 17.607762494970835 29.299989707048663 6.584232601677526 1 -1 1
3804 317 1 0 21.460742507796045 28.118201407034935 3.1287183034808628 0 1 2
2343 196 2 0 18.16207237403171 29.396335609200978 1.7288188879381172 1 0 1
3802 317 1 0 21.244548935488528 26.709550947497615 2.205421009391833 0 1 2
727 61 1 0 27.295243468188794 24.061179507067802 36.31767693212915 0 -1 -2
1892 158 1 0 23.14539674306659 24.824955847412816 8.19708294744464 0 0 0
2853 238 1 0 29.129483850060634 22.28011536147292 2.804835145082242 0 -1 0
516 43 1 0 28.456111575535886 26.37133992437489 6.479718256326346 0 1 0
1891 158 1 0 23.105386277830714 24.726548910460487 6.46128773316586 0 0 0
515 43 1 0 27.472231490954893 26.022523534203625 7.9363906079678594 0 1 0
15 2 2 0 22.78147579414691 23.225370905081164 3.4659399459183002 0 0 0
510 43 2 0 27.669796979889483 26.663397784560335 7.179026058092151 0 1 0
1885 158 2 0 22.98664210892789 24.138825545548308 7.335886357971045 0 0 0
19 2 1 0 24.31505641756433 25.292751130729464 3.6065647224661794 0 0 0
509 43 3 0 26.50547507057038 26.745449631099813 6.322316383748039 0 1 0
514 43 1 0 27.929755963510125 27.617783686026517 7.719761741975604 0 1 0
507 43 2 0 25.29319239786925 27.072022258549016 6.772907755949866 0 1 0
506 43 3 0 24.376377729725792 26.941014756363153 5.817165667928329 0 1 0
3797 317 3 0 23.155538520371667 27.214580529403136 2.161995124210349 0 1 2
513 43 1 0 22.30414234742512 27.234501520404827 5.716167207837916 0 1 0
13 2 2 0 24.778632544626873 24.375022817638403 3.265866756099475 0 0 0
512 43 1 0 23.236132942229002 28.693133266513392 5.312960798618534 0 1 0
505 43 2 0 23.18645084036113 27.819493394884876 5.993622788453662 0 1 0
14 2 3 0 23.786629429333306 23.576413979044453 2.666607084231278 0 0 0
16 2 3 0 22.74940297307805 22.940089630539582 4.614821814917662 0 0 0
21 2 1 0 25.515662173051616 24.546518542116903 2.437262230522165 0 0 0
3794 317 3 0 25.163412827573126 27.978050628574135 2.0443090518677014 0 1 2
3800 317 1 0 27.14013393010615 28.334442889452863 2.0496733873367576 0 1 2
20 2 1 0 25.277450521301713 23.780862782466713 4.051573866742981 0 0 0
3795 317 2 0 23.952971703392535 28.282362176709015 2.4282497314137217 0 1 2
2133 178 1 0 29.589557922322907 27.15667614946587 3.906615791656696 1 0 1
511 43 1 0 23.00957618957231 28.131876310889044 7.041182885046234 0 1 0
1027 86 1 0 27.918671798244233 24.053254226350028 6.160419692879851 -1 -1 1
2125 178 2 0 29.07045280266715 26.22506136442087 3.7319831786758133 1 0 1
2131 178 1 0 28.060042767241306 26.357848493412877 4.034250206145779 1 0 1
2126 178 3 0 28.97158502306807 25.957125857022774 2.3181975912161294 1 0 1
1028 86 1 0 28.633839185949896 22.53395520117081 6.352888817336801 -1 -1 1
1021 86 2 0 28.18789698514481 23.325928388644538 6.970738110888847 -1 -1 1
3793 317 2 0 26.2355110569404 28.923671948736484 2.1808269263955804 0 1 2
3796 317 3 0 23.573914751468553 29.344899346660902 2.8854955595718055 0 1 2
3799 317 1 0 26.21628768249252 29.467789714209747 3.0893176847236763 0 1 2
517 44 2 0 34.54071573333116 26.250244317214182 3.021608797465695 0 -1 1
525 44 1 0 33.80331501379737 25.434163507851935 3.0288204449438503 0 -1 1
3537 295 1 0 32.78418788889159 29.02155738492011 7.13593480149921 -1 0 0
2823 236 2 0 32.255114689366216 22.800152722273445 1.1178897920124116 0 -1 -1
2128 178 3 0 30.842810289599427 27.216766197592506 1.9807345520380628 1 0 1
521 44 3 0 32.86498804681129 29.347866359871833 2.5878827471029853 0 -1 1
1030 86 1 0 32.304218073175996 25.804722745586986 7.396204326503922 -1 -1 1
1630 136 1 0 36.01853516805887 22.689526267084197 2.1535640715164006 -1 0 0
1625 136 3 0 36.20371018049075 22.37792856878793 4.21756296651756 -1 0 0
2825 236 3 0 32.493823482725205 23.37208753735489 2.2893461724440023 0 -1 -1
579 49 2 0 35.655169853892495 27.4337269023198 6.704132140247857 0 0 0
587 49 1 0 35.010663310796346 24.863233821003643 6.2444168637551485 0 0 0
580 49 3 0 34.640299914042195 27.323841130298614 7.303339686787661 0 0 0
1023 86 2 0 30.37791853389243 23.984872365986455 7.615368456206727 -1 -1 1
2127 178 2 0 29.9451925782116 26.55524468786345 1.5351903372077882 1 0 1
2132 178 1 0 29.47855634648501 25.327941994569155 4.234158725707257 1 0 1
2831 236 1 0 30.494899784028295 23.700062967949414 2.6493279364226012 0 -1 -1
2830 236 1 0 31.48692439261677 24.05881888546103 4.016857324493626 0 -1 -1
3535 295 1 0 32.68150458492901 29.657303518162184 5.403035285775335 -1 0 0
582 49 2 0 35.9852643956418 25.130193589851523 6.705083540380691 0 0 0
1024 86 3 0 30.938046582561846 23.610079933708903 6.578107689633167 -1 -1 1
2826 236 2 0 31.36748572363913 23.34232449653794 3.166015354451124 0 -1 -1
3532 295 3 0 30.110848277734906 28.747941525162574 6.055173914289792 -1 0 0
586 49 1 0 35.98439268390517 25.02768453819217 7.824330467518635 0 0 0
581 49 3 0 36.41287528553511 26.437121107869455 6.23321374526552 0 0 0
578 49 3 0 36.28941961878211 28.648252046573894 6.44166109309405 0 0 0
523 44 1 0 34.969676466794546 26.316883995567924 2.0323976807647277 0 -1 1
520 44 3 0 34.43282704881549 28.448899669712112 1.3098542872869763 0 -1 1
518 44 3 0 33.82666382894058 27.518723506698088 3.294436500296651 0 -1 1
519 44 2 0 33.746979115257034 28.44421239591503 2.2529090077979115 0 -1 1
524 44 1 0 35.30449856627311 26.247030868820488 3.8087230005669843 0 -1 1
3849 321 1 0 1.3010290829579692 34.33236786176954 3.3740792727587716 2 0 1
583 49 1 0 0.8154784940539841 30.434803277368427 7.10122159716255 1 0 0
3335 278 1 0 3.701547874072042 35.89566155231674 6.928697191461331 1 1 -2
1144 96 3 0 5.318088769102058 30.155115237268227 7.0140174033283245 -2 -1 -1
1142 96 3 0 3.910387914026098 30.98187972224384 5.378389972396245 -2 -1 -1
890 75 3 0 6.906777111574074 31.434691887569922 2.3748484502076255 0 -1 -1
1143 96 2 0 4.9863351218117575 30.942814662731873 6.158987602312839 -2 -1 -1
1145 96 3 0 5.621984348042562 32.09270575215517 5.947942804793719 -2 -1 -1
3848 321 1 0 0.9241070872350347 32.82218993874792 4.363545294139983 2 0 1
2305 193 2 0 4.227689934439924 33.35354712609528 3.686638290347022 1 1 1
2306 193 3 0 3.512435235187725 33.38111398934113 2.398853819132364 1 1 1
2313 193 1 0 3.745936799635324 32.594017301837006 4.261883111921398 1 1 1
2311 193 1 0 5.300871814927232 33.08498713336376 3.5191806457046066 1 1 1
2307 193 2 0 2.9954921446584803 32.200794474503 1.9603176446458985 1 1 1
3330 278 2 0 3.579565404796738 1.0290447842399022 6.820375113264467 1 2 -2
2308 193 3 0 3.1032739820999784 31.130138983630193 2.442144535813729 1 1 1
3334 278 1 0 3.2457064819272534 1.4514044054162307 7.81272399643051 1 2 -2
2312 193 1 0 4.205723377478476 34.352743311755674 4.083103285962663 1 1 1
1151 96 1 0 7.63855733858985 31.970888652035356 6.180469858088615 -2 -1 -1
2564 214 1 0 2.7462249005577637 33.01454459547564 7.099487423346356 -1 0 2
2557 214 2 0 1.8271950575264557 33.64273626150788 7.042012532625028 -1 0 2
2563 214 1 0 1.953660632158598 34.53577296327256 6.398920700785246 -1 0 2
1146 96 2 0 6.820319782066849 32.308536744361575 6.772572585882522 -2 -1 -1
889 75 2 0 6.608318917405315 30.10573134025483 2.817018089169017 0 -1 -1
1152 96 1 0 6.911648779022371 33.405902891636764 6.9278431985149345 -2 -1 -1
2314 193 1 0 1.4532070857431099 30.636298848175343 36.45982160164012 1 1 0
897 75 1 0 7.021842628122361 29.98242620015137 3.8580936842370144 0 -1 -1
895 75 1 0 5.452521692351991 29.916733446370237 2.7834825797007645 0 -1 -1
2309 193 3 0 2.302826386677635 32.54463835323477 0.8474269942518714 1 1 1
2646 221 2 0 6.411303900226393 36.20152518187104 2.330021441681892 3 1 1
2652 221 1 0 6.793828795656799 35.65530251948841 3.2225895358357466 3 1 1
2651 221 1 0 6.954595288678795 35.965254372983374 1.4389622362182402 3 1 1
2650 221 1 0 5.388157921140083 35.98648856006886 2.098040175925652 3 1 1
899 75 1 0 9.133914510171808 34.925711551216494 2.0945369056188428 0 -1 -1
898 75 1 0 10.157949573775099 33.422050940524784 2.03210724134625 0 -1 -1
2267 189 1 0 15.866714672752412 36.47965237471998 7.7341174688819985 -1 0 0
1088 91 1 0 13.053841358167912 36.355050758518196 6.516446117036291 1 0 1
894 75 2 0 9.295697616169026 33.91842325668722 2.51967383214095 0 -1 -1
891 75 2 0 8.064308709652252 31.942021208018698 2.737380445907594 0 -1 -1
1992 166 1 0 11.153045427874392 30.182379011724528 6.371894173806019 2 0 -1
540 45 1 0 12.581688490820582 28.969199031520095 1.1939063843947144 0 -3 1
1986 166 2 0 10.717388940367101 29.71686071328638 5.489312140278064 2 0 -1
2256 188 1 0 12.566659726778504 34.169765762124854 3.424112678719577 2 -2 0
2250 188 2 0 13.263862561783334 33.582822806884394 4.066727915037163 2 -2 0
1163 97 1 0 11.304138759650352 33.66305891282878 7.283491086040577 3 -1 1
2249 188 3 0 13.85034276474258 32.55693802494452 3.2784577143641576 2 -2 0
1162 97 1 0 11.209437806206893 32.564972746119764 6.021102763905193 3 -1 1
1991 166 1 0 10.253907833804558 30.499877406270222 4.8014929029113915 2 0 -1
893 75 3 0 8.106808877283568 33.178645577375235 2.203599542541815 0 -1 -1
1154 97 3 0 8.464142204922455 35.70563686121484 5.6278754309734165 3 -1 1
900 75 1 0 9.506829949965661 33.825071533412526 3.623900985445892 0 -1 -1
892 75 3 0 8.92988944368998 31.340297572137608 3.3764692659251194 0 -1 -1
2254 188 1 0 12.684555561704059 33.14078877732816 4.842104433200642 2 -2 0
2265 189 1 0 14.20831097466556 31.660766171407122 6.044822476332909 -1 0 0
1155 97 2 0 9.318705798576183 35.09052770112409 6.410396855902295 3 -1 1
1157 97 3 0 9.730618955770606 33.927878963759426 5.930694182538341 3 -1 1
1158 97 2 0 10.52821558647457 33.10238053921031 6.723333488812673 3 -1 1
2255 188 1 0 14.02502303995509 34.13267598849715 4.619971342854336 2 -2 0
2263 189 1 0 15.65430325505911 32.052424972343 4.963180855047568 -1 0 0
2257 189 2 0 15.302804097947254 31.69147917708338 5.987041775560425 -1 0 0
2247 188 2 0 13.808870093451011 32.8499807605822 1.9804126378483882 2 -2 0
1663 139 1 0 12.968822780103784 35.75869152292528 1.8883544548391382 1 -2 1
538 45 1 0 11.44045223041745 30.27572894754966 1.695527976905454 0 -3 1
1984 166 3 0 8.907428034740684 29.974220365986305 7.671019966044589 2 0 -1
2260 189 3 0 13.923464224784832 33.56276913109773 7.596840919522602 -1 0 0
1164 97 1 0 9.862684185190782 32.506496176469376 7.330072562277131 3 -1 1
1156 97 3 0 9.603095108183169 35.538287105684105 7.5369133958355325 3 -1 1
2248 188 3 0 13.547959827493449 33.90326338273166 1.4492916285314807 2 -2 0
1664 139 1 0 13.39990613493065 36.28455575636038 3.3917525772181527 1 -2 1
2246 188 3 0 14.146207693135757 31.720952936084664 1.298190284019457 2 -2 0
3094 258 1 0 17.164771290833446 33.81904906511743 1.9499575848442527 -1 1 2
277 24 2 0 20.882586747329213 36.29827773905503 1.775158911286118 0 -1 1
2347 196 1 0 21.306977331822512 29.24205290994769 1.3307352471834932 1 0 1
285 24 1 0 21.253166397029236 35.38333399319212 1.3402613883910481 0 -1 1
185 16 3 0 21.552847109606645 34.02020769106238 6.611818662300803 0 1 0
283 24 1 0 20.93085000155528 36.46508324444239 2.8624857138552016 0 -1 1
2259 189 2 0 15.116301948471577 33.51663055341193 7.4706385032663185 -1 0 0
2261 189 3 0 15.995158474130141 34.35448478380174 8.058663541506267 -1 0 0
184 16 3 0 20.5361930621076 35.812163595004456 7.412126274941794 0 1 0
192 16 1 0 19.783189830137065 33.369524100477875 7.4086932076099785 0 1 0
186 16 2 0 20.862761250831156 33.24582656838022 7.605230428426125 0 1 0
3090 258 2 0 17.771106804378682 33.51506872160696 1.0878047193989233 -1 1 2
190 16 1 0 21.087277592008164 32.16470877596941 7.427849882736379 0 1 0
3095 258 1 0 17.815927351463607 34.29589427828977 36.28339162899133 -1 1 1
2264 189 1 0 15.753683259199796 30.692022420431286 6.153542413725842 -1 0 0
3089 258 3 0 19.15330969649717 33.42636870172882 1.524899413105428 -1 1 2
2344 196 3 0 17.7502321802048 30.07404719266393 0.8152315295526297 1 0 1
2350 196 1 0 15.913395562731175 29.882653071690342 2.0056002380982796 1 0 1
2574 215 2 0 17.915622841053437 30.235952595897935 7.622634605877754 1 -1 1
2578 215 1 0 18.31717264413654 31.176801044177164 7.217845932427438 1 -1 1
2580 215 1 0 18.624543218936918 29.643226053758564 8.224893499391342 1 -1 1
2258 189 3 0 15.898472460972831 32.6196477747468 6.8692444921557305 -1 0 0
3086 258 3 0 20.760383209171138 32.62006137225348 2.585289747955395 -1 1 2
3087 258 2 0 19.43879631065317 32.550485511332106 2.5274073583407874 -1 1 2
3088 258 3 0 18.667756585148553 31.87938114919869 3.1859679072836737 -1 1 2
183 16 2 0 21.26738694054014 35.322288358722474 6.608241166327952 0 1 0
182 16 3 0 21.68210288220337 35.88067430305372 5.53126868194385 0 1 0
3972 331 1 0 19.11717170923271 36.208894227941904 4.6678297225692456 -2 0 1
3085 258 2 0 21.401022609220117 31.83071921961507 3.6141019340396188 -1 1 2
3092 258 1 0 21.313280158778213 30.741867530654655 3.404263311862579 -1 1 2
3093 258 1 0 22.465503626151385 32.24339501834904 3.7236734698708522 -1 1 2
3971 331 1 0 17.812261113327487 35.205718014150456 3.879586282324308 -2 0 1
3966 331 2 0 18.193132156188053 35.54905505696034 4.820455654369056 -2 0 1
3970 331 1 0 18.46951568394642 34.75613407706452 5.431357789659764 -2 0 1
3965 331 3 0 17.230453928172082 36.389924542401076 5.600997090238702 -2 0 1
3091 258 1 0 20.95228641725071 32.06034461881801 4.547215205075121 -1 1 2
2332 195 3 0 28.77469333130234 36.20275117574695 7.589118158417637 -1 0 0
3152 263 1 0 24.69383193181416 36.36980385251285 7.721184126061674 -1 0 0
3533 295 3 0 29.198451131950122 30.821255447994073 5.932113664878839 -1 0 0
571 48 1 0 22.9617657045365 33.081045815149764 1.5526774754702768 0 0 2
1411 118 1 0 27.245555512557004 33.85008255046991 1.786974168787542 0 0 1
3156 263 1 0 25.169895474956853 31.332397092729032 4.901831936062548 -1 0 0
565 48 2 0 23.983019767385546 33.47678254676049 1.306870222552844 0 0 2
1412 118 1 0 27.552252223857668 33.12914866510644 3.450537673367234 0 0 1
1405 118 2 0 27.891461733692754 33.159962992923425 2.350993302180941 0 0 1
3538 295 1 0 28.181525860390362 30.693958655051166 4.133630844974416 -1 0 0
1406 118 3 0 27.884721312902418 31.88095445353368 1.805311634323209 0 0 1
3151 263 1 0 24.235076498031173 36.09620077258173 6.014102680781203 -1 0 0
1413 118 1 0 28.965105742733098 33.462739009763524 2.3113262727814132 0 0 1
3153 263 1 0 25.97489529241025 36.03869715634144 6.482264781953539 -1 0 0
3801 317 1 0 26.196508296999994 29.686685994411555 1.407371591869482 0 1 2
3155 263 1 0 23.39927841781943 31.31442602500161 5.299673493063588 -1 0 0
3150 263 2 0 24.44428391684792 31.25237754971366 5.710532155874047 -1 0 0
3534 295 2 0 28.01300936618527 30.514871393840284 5.188229883251259 -1 0 0
3145 263 2 0 24.924617561948416 35.87471089565136 6.7926661860728075 -1 0 0
3149 263 3 0 24.544394186271326 32.2840630200778 6.688254814080221 -1 0 0
3147 263 2 0 24.890829714552638 33.49280156890819 6.212042343589132 -1 0 0
3146 263 3 0 24.700159123494245 34.37624527961322 7.14115721762456 -1 0 0
573 48 1 0 24.473553424959626 33.824550973428806 2.2416543331664776 0 0 2
3148 263 3 0 25.34504936559048 33.69164840160975 5.072608022046144 -1 0 0
3539 295 1 0 27.808019241866166 29.374013067561485 5.248469408188101 -1 0 0
3489 291 1 0 25.86354048850845 36.15201716545941 2.823740315474424 1 0 1
572 48 1 0 24.622178859028804 32.70299479442005 0.8460084687217277 0 0 2
3154 263 1 0 24.677450127923255 30.334416873415265 6.211199387104971 -1 0 0
3540 295 1 0 27.233329119742823 31.11159225260201 5.65214731527555 -1 0 0
1407 118 2 0 28.77856924395822 31.427405399426714 0.9721604603321568 0 0 1
2336 195 1 0 27.5715937128554 0.7703482342149002 5.272520048148684 -1 1 0
634 53 1 0 34.30683458608882 35.81622479597395 5.866731482261628 -1 0 0
636 53 1 0 32.65306556015805 35.381216244272714 5.416820052781649 -1 0 0
630 53 2 0 33.24932004002299 35.76268694517823 6.1897868479858085 -1 0 0
3841 321 2 0 36.524204145740406 33.81515901501255 4.0636941611105355 1 0 1
3847 321 1 0 36.47893846873493 34.475041764569255 4.944235244598002 1 0 1
577 49 2 0 35.81989619640454 29.85716344913761 7.013352076228283 0 0 0
793 67 2 0 34.03186166199834 0.8993555359891467 1.0917071954737372 -1 0 -1
800 67 1 0 34.506972257972194 35.87167305421222 1.230702182286888 -1 -1 -1
794 67 3 0 32.65047223168121 36.37333547817995 1.037548801912312 -1 -1 -1
526 44 1 0 32.86373393490656 31.256292706668418 1.6462750135877477 0 -1 1
2565 214 1 0 1.088738169883398 32.873685572544005 6.730022130774761 -1 0 2
3852 321 1 0 31.992178966130513 32.72101684127415 5.010139813705939 1 0 1
2339 195 1 0 31.393869587133185 33.58611210874268 8.209525019546797 -1 0 0
522 44 2 0 32.41105750624213 30.235762686365653 1.4498892127237522 0 -1 1
2338 195 1 0 29.66428077732079 33.19321220585725 8.059371045789218 -1 0 0
528 44 1 0 31.333352198445855 30.11268059383431 1.562449351238039 0 -1 1
3530 295 3 0 31.328503536888313 30.543884638307354 6.658962473324761 -1 0 0
3845 321 3 0 33.244319610633276 32.858463891654836 3.3407146129337275 1 0 1
3844 321 3 0 34.56026185863038 32.478299510019916 5.178365205888196 1 0 1
3846 321 2 0 32.030862843380206 32.5345848208 3.953433378706503 1 0 1
3851 321 1 0 31.791071435030062 31.421714572992567 3.921196598038028 1 0 1
2334 195 2 0 30.374914865936983 34.04626218892402 8.079557465440097 -1 0 0
3531 295 2 0 30.198294983872376 29.924126069325762 6.233434306812189 -1 0 0
2333 195 3 0 30.30273541744984 34.685005760584914 6.853947459230113 -1 0 0
2331 195 2 0 29.479990810259793 35.73173177491511 6.719159273361 -1 0 0
3842 321 3 0 35.199333366631926 33.66719299198692 3.416294010457826 1 0 1
3536 295 1 0 33.2356551814043 30.777206658333075 6.500209842626271 -1 0 0
3529 295 2 0 32.59131650951702 29.889170108773353 6.476707175443533 -1 0 0
3843 321 2 0 34.354728838885244 32.92197218053649 4.039341066202571 1 0 1
3850 321 1 0 31.256095424424124 33.13169257578524 3.351519619328076 1 0 1
1408 118 3 0 29.92591094989058 31.82451337784625 0.8053072188086491 0 0 1
2330 195 3 0 29.634245627369786 36.31830153189032 5.470546360696598 -1 0 0
584 49 1 0 35.08177566301789 30.285655633615242 6.402154964211369 0 0 0
635 53 1 0 33.24763920769266 35.117469749459666 7.082930475116734 -1 0 0
585 49 1 0 35.42411202133286 29.64080107580679 8.005497195251397 0 0 0
3705 309 1 0 3.8727853699061967 8.210484317377786 11.119360784905194 1 0 0
2388 199 1 0 2.9278376780614885 8.09415892991017 8.866933370639574 -1 0 0
2034 170 2 0 7.548674298793053 7.97961385756414 9.127517100003846 0 0 -1
2039 170 1 0 7.752007885180414 7.737660545371977 8.120557552101156 0 0 -1
715 60 1 0 0.8277274467126657 5.8390775036842895 13.447510395627507 1 -1 -1
2037 170 1 0 4.878817932132464 3.9507560247193663 8.289231520206496 0 0 -1
3419 285 1 0 5.981673376343909 2.530028139909285 12.55922375540829 0 1 3
709 60 2 0 1.749493212761203 6.21937867879163 12.961510426679187 1 -1 -1
3414 285 2 0 6.935424255843746 2.668485344172385 12.049028527297796 0 1 3
2033 170 3 0 7.012207309090745 6.828610732163566 9.69470782527355 0 0 -1
716 60 1 0 2.535553678882767 5.648912161205435 13.451427740950535 1 -1 -1
3699 309 2 0 4.907074915619311 7.660498401744653 14.069808450689225 1 0 0
3698 309 3 0 5.0195958919868975 7.537149634012 12.756014268178058 1 0 0
2036 170 1 0 3.931943263853021 4.85547162317566 9.639754233464485 0 0 -1
2029 170 2 0 4.770878098510177 4.240596240677903 9.394644545347141 0 0 -1
2402 201 3 0 1.6832658833595038 2.6866854953636694 9.0067560462284 -1 -1 0
2403 201 2 0 1.4538754272348149 2.471612258646611 10.329010058918199 -1 -1 0
3413 285 3 0 6.912274127958073 1.8600734418680949 10.889731118859725 0 1 3
2030 170 3 0 5.944501014850308 5.014366747722617 9.804461045960405 0 0 -1
2405 201 3 0 2.629538648393918 2.2448789197727557 10.931302952610016 -1 -1 0
3420 285 1 0 7.8040957284608945 2.422400753567916 12.697261817787377 0 1 3
710 60 3 0 1.8967244531281358 5.990289818335393 11.566522137521867 1 -1 -1
3701 309 3 0 5.357755296771192 6.553857704681938 14.772075935035131 1 0 0
2032 170 3 0 5.0982023688425855 6.685698834473816 8.469117461671225 0 0 -1
2411 201 1 0 2.770180284087081 2.622704546872455 12.842366554713315 -1 -1 0
2410 201 1 0 3.2829892488235637 1.0356425868858783 12.36497674411954 -1 -1 0
2412 201 1 0 1.5793936363027803 1.2944099793224138 12.568742563934416 -1 -1 0
2409 201 1 0 0.8320907894633426 3.112234289570745 7.227787760324173 -1 -1 0
2406 201 2 0 2.4776671668461177 1.7759568978554054 12.252586108371592 -1 -1 0
2031 170 2 0 5.976053592651455 6.188511843348538 9.129510274947563 0 0 -1
2035 170 1 0 4.684625672536992 3.3109249861512495 10.103478019912512 0 0 -1
2433 203 1 0 8.530158414636398 2.2650537204227064 8.793257342840432 -1 1 -2
3868 323 3 0 14.41851480367276 7.4366068662744205 14.147224076434792 -1 -1 -2
1084 91 3 0 12.498037146838143 1.3876517152472152 8.950604458700528 1 1 1
3764 314 1 0 12.154986369204428 5.960209687327837 8.415379745537784 1 1 2
3763 314 1 0 10.707634658023464 6.9151262882486115 8.757189088833519 1 1 2
1083 91 2 0 13.08256709561668 2.322499476755819 8.428887869915483 1 1 1
1085 91 3 0 13.492445710239638 3.438930062689709 9.010685761563987 1 1 1
3758 314 3 0 12.437314320884823 7.624927988510603 9.66896955358978 1 1 2
1086 91 2 0 13.403836578121156 3.551330168732244 10.436871776544494 1 1 1
3777 315 1 0 7.58490260295996 6.51751767599214 13.06979830694576 0 0 0
3765 314 1 0 11.50437448407567 5.896000315074489 9.980542515303803 1 1 2
3871 323 1 0 12.150350285174751 7.112383634702214 14.163988318561394 -1 -1 -2
3779 315 1 0 11.71853778159361 2.1154337950262887 14.384298453386133 0 0 0
1092 91 1 0 13.796434916034652 4.523217596277571 10.746637903011495 1 1 1
3771 315 2 0 10.377074468235712 4.817000409062426 13.149200076930752 0 0 0
3769 315 2 0 8.674457843047083 6.49153496411022 12.922398546231081 0 0 0
3772 315 3 0 10.949587283485506 5.266397984996443 12.168096825072086 0 0 0
3775 315 1 0 9.11630098085335 7.471572875096478 13.294215314115345 0 0 0
1090 91 1 0 12.331212995504039 3.417727134995513 10.69740471889291 1 1 1
3770 315 3 0 9.223277661640296 5.361120861825856 13.605385099363291 0 0 0
3757 314 2 0 11.644817705132178 6.55748253123825 9.168154117002851 1 1 2
2431 203 1 0 10.240538644586167 2.6889553098550314 9.135504537626304 -1 1 -2
3776 315 1 0 9.025177555123456 6.458619884736922 11.883962932914715 0 0 0
3773 315 3 0 10.644666583736136 3.756177777335535 13.854763151010829 0 0 0
3774 315 2 0 11.803167908424033 2.948863550422088 13.658807830820972 0 0 0
3780 315 1 0 11.82682130273848 2.4755471042479416 12.690673847481571 0 0 0
3778 315 1 0 12.626245064598839 3.556219301878225 13.680682468543122 0 0 0
1091 91 1 0 13.890670933515095 2.7472801327609635 10.889974380421682 1 1 1
2432 203 1 0 8.750273595228167 3.477239819688496 9.916950695741694 -1 1 -2
2425 203 2 0 9.205666347456964 3.059419639236781 9.051887231812438 -1 1 -2
3418 285 1 0 7.043762616332574 3.793147592200429 11.714514553047989 0 1 3
86 8 3 0 21.363030366887234 3.0960434122941334 9.05294988486529 1 2 -1
2216 185 1 0 19.108805635146386 2.1774737561172373 8.906011278307576 0 1 -1
618 52 2 0 22.115803409660494 2.3182520857752884 14.058580613372278 0 1 0
2915 243 1 0 17.107269946373364 6.105084694595929 14.201787558942305 0 -1 0
3619 302 1 0 17.438595351435655 1.6951473037595024 14.197840056253364 1 1 0
2240 187 1 0 15.751976776230437 7.578375759253024 11.891487816190716 -1 0 0
2916 243 1 0 16.1500707117873 5.267019207672245 15.273234659404812 0 -1 0
2073 173 1 0 21.128050682417253 7.040699186570399 11.674536290369911 -1 1 0
2218 185 1 0 15.43935308068277 7.123485028043203 7.953904882472078 0 1 -1
2910 243 2 0 17.114557764377246 5.680692907558291 15.159818618268421 0 -1 0
2239 187 1 0 16.42619436329471 7.220576074284461 10.146872265835748 -1 0 0
3621 302 1 0 15.600065531114456 1.6355566601369735 14.160742612616096 1 1 0
3614 302 3 0 16.56141741824574 0.9488262411736584 12.381991647581117 1 1 0
89 8 3 0 22.0981358319499 1.3368799223889405 9.917665375659697 1 2 -1
2215 185 1 0 17.768713583409877 1.7950760312989273 7.677373505921023 0 1 -1
2234 187 3 0 16.915015990538702 5.831247911528246 11.600382689808576 -1 0 0
93 8 1 0 20.758473677413487 4.901703648828897 8.471522056453228 1 2 -1
85 8 2 0 21.298425712719453 4.115830172084375 7.972004496808016 1 2 -1
2241 187 1 0 17.472120362290564 7.84330668051701 11.45770909114848 -1 0 0
622 52 1 0 20.99318742171221 2.155437788071809 14.052653206570675 0 1 0
624 52 1 0 22.603780387620773 1.8490299449049796 13.230447185742705 0 1 0
87 8 2 0 22.30887333005525 2.1894685885079057 8.977799084783703 1 2 -1
91 8 1 0 22.360940435733838 4.37763623321731 7.801374107537686 1 2 -1
2243 187 1 0 19.80987369367616 4.115190800226622 12.762590422936933 -1 0 0
2238 187 2 0 19.58209020060957 3.807783068497543 11.748915199067811 -1 0 0
2242 187 1 0 20.299632769018313 4.3330275988161535 11.105973871693974 -1 0 0
2235 187 2 0 17.99950452302313 5.404497561331608 10.986255963401751 -1 0 0
2244 187 1 0 19.761371198572803 2.7692195235935286 11.53317570560047 -1 0 0
2237 187 3 0 18.270092405479115 4.191982881612631 11.453085293447499 -1 0 0
3620 302 1 0 16.466932167111228 2.9227035379381405 13.294328263756736 1 1 0
2233 187 2 0 16.602719632238834 7.235910663184582 11.239133337428084 -1 0 0
2236 187 3 0 18.722426593980188 5.905135542259802 10.167535442613596 -1 0 0
3613 302 2 0 16.53594921375956 1.832948526029087 13.604012588171583 1 1 0
2217 185 1 0 17.394115393981174 2.139951244211344 9.348249260324314 0 1 -1
2212 185 3 0 16.091551394369617 4.134830235815082 9.476480582227289 0 1 -1
2209 185 2 0 18.11446128318812 2.3642096309609975 8.544356916491896 0 1 -1
2211 185 2 0 16.864933276086585 4.454607949073149 8.593250607879156 0 1 -1
617 52 3 0 22.750929039958375 1.8568534706868725 15.244905835058796 0 1 0
616 52 3 0 24.654538820169698 1.610220735525997 14.163719465012944 0 1 0
1107 93 2 0 28.9644664305741 5.04038780212369 10.226486346512115 1 1 0
3896 325 1 0 27.709221274471055 0.9310501098430406 10.381500943019468 1 0 -2
1776 148 1 0 24.32760242501167 3.873253980575018 12.702410910285375 0 1 1
1765 148 2 0 24.15819958508263 7.417809570771623 9.23817172047644 0 1 1
615 52 2 0 24.001271456984593 1.3573920840502347 15.139476138423886 0 1 0
1115 93 1 0 27.779780213086188 3.1563126527361907 9.143182575077857 1 1 0
2399 200 1 0 27.837925312628727 2.4455910131455822 12.910824171500852 2 0 -2
1774 148 1 0 24.837002513953266 2.983456083849507 11.250876644821318 0 1 1
1767 148 2 0 24.358373831942103 5.586567724464279 10.76393253757997 0 1 1
1770 148 2 0 25.161519616811802 3.704838644205434 11.97387206450986 0 1 1
1775 148 1 0 26.043359489080434 3.442430603939053 12.538237481974654 0 1 1
1766 148 3 0 24.852575799489813 6.6433908465962785 10.18367848886063 0 1 1
1768 148 3 0 23.221412630977298 5.222183633365696 10.821491174314493 0 1 1
1769 148 3 0 25.418610998726088 4.964240818210514 11.285951204878131 0 1 1
1772 148 1 0 23.743933193967152 6.874803881290325 8.36379597909787 0 1 1
1109 93 3 0 28.240791461962775 5.232655751459643 9.092516256984402 1 1 0
1113 93 1 0 29.031729143949875 6.005264156575102 12.638944570567679 1 1 0
2398 200 1 0 28.59750833301852 2.4681193746251116 14.422346506634847 2 0 -2
1114 93 1 0 28.776811007116823 3.8215206839200535 7.726672434899396 1 1 0
623 52 1 0 22.33340854184556 3.378585302412707 13.845156468130913 0 1 0
1603 134 1 0 23.795431668365183 6.264774042165925 14.865954762562163 1 0 -1
1110 93 2 0 27.9245845859709 4.015744669654506 8.402893071063449 1 1 0
1106 93 3 0 29.285021959966766 6.322837694250898 10.64594460391609 1 1 0
2394 200 2 0 28.560340880619123 1.9118922177757771 13.528257276477486 2 0 -2
2400 200 1 0 28.305076997084715 0.831908586275623 13.657521335142857 2 0 -2
626 53 3 0 32.85455553189686 2.7439431874601556 8.064195127476102 -1 1 0
2689 225 2 0 31.279176147341882 7.135418565967824 7.98469357714198 1 0 -1
2696 225 1 0 31.315824136271 6.453400220258738 8.835724472457429 1 0 -1
720 60 1 0 35.22770815064479 5.595341946922304 8.824399270035403 0 -1 -1
713 60 3 0 1.1542580074134698 5.933675494870973 9.533870350297535 1 -1 -1
714 60 2 0 36.084998146592 6.1671314851827015 8.584043509679542 0 -1 -1
718 60 1 0 35.800742061898646 7.261451461016564 8.44434919204924 0 -1 -1
946 79 1 0 34.52213988517075 0.7780966867068476 13.79359441694358 0 1 -1
377 32 3 0 34.71579908820191 7.584374354076026 14.137785938233224 0 1 -1
383 32 1 0 33.223561444045075 7.167293118008285 12.581949987394482 0 1 -1
2408 201 1 0 35.60760333525509 3.246386527879669 8.620906117312877 -2 -1 0
1108 93 3 0 29.425032605114644 4.074751068323568 10.834967249832003 1 1 0
717 60 1 0 1.8158133145737636 7.230859864365534 13.218355909036411 1 -1 -1
628 53 3 0 32.84864141868425 36.49580672563435 8.833705079302192 -1 0 0
633 53 1 0 33.598735724403944 3.0197776409334653 9.921858513236934 -1 1 0
631 53 1 0 32.6246283704955 4.2938134580744025 9.43135214699483 -1 1 0
625 53 2 0 32.67646707399842 3.187536909772894 9.42632665534859 -1 1 0
942 79 2 0 34.5045479462172 0.8124930037128822 14.90016186197633 0 1 -1
1111 93 1 0 30.705855487729185 6.13773319513547 12.12257946373171 1 1 0
711 60 2 0 0.7977804957137301 6.125951446041608 10.783699613727077 1 -1 -1
2396 200 1 0 32.9757302847769 4.41822061971901 11.931805078717161 2 0 -2
2391 200 2 0 30.642817605388505 2.964986012797673 13.147563596211308 2 0 -2
1105 93 2 0 29.696231011756904 6.518317554782036 12.01725669351694 1 1 0
2401 201 2 0 36.43625612406595 2.696468633731106 8.19802049886157 -2 -1 0
1112 93 1 0 29.696577450168036 7.600200371359392 12.22605647265392 1 1 0
712 60 3 0 35.64018982313185 6.424142187030428 11.206341178870202 0 -1 -1
2393 200 3 0 29.935088567879966 1.822204897170621 13.057734559963627 2 0 -2
2389 200 2 0 32.86909874163891 3.8426348974314535 12.835524449333684 2 0 -2
2390 200 3 0 31.9314588895676 2.6949215017328862 12.711563020641165 2 0 -2
2397 200 1 0 32.63010093673216 4.462643361479186 13.673965242778907 2 0 -2
2395 200 1 0 33.837162072151344 3.42617195372385 12.999752724818476 2 0 -2
2392 200 3 0 30.254268968623627 3.984591291285784 13.655024580562102 2 0 -2
2404 201 3 0 36.263939187697616 2.4433212716662798 10.722279067041582 -2 -1 0
632 53 1 0 31.948877218531358 2.7063790227698186 10.049219872816199 -1 1 0
3700 309 3 0 4.482251217747708 8.661939561642319 14.650526680702693 1 0 0
3703 309 1 0 3.7961711922763204 9.26581844073785 12.583892891385265 1 0 0
1356 113 1 0 3.6980284691057377 12.105733969016008 13.120210766458811 2 1 2
2 1 3 0 8.181905613430969 12.068877681095273 14.395799402865324 1 2 -1
1348 113 3 0 5.476219204544487 13.262546193458688 10.08867777867347 2 1 2
1347 113 2 0 5.01632134357039 12.165416891824442 10.132969205332627 2 1 2
2017 169 2 0 36.34230362312598 10.301237981916492 14.717132890813948 -2 -1 0
1354 113 1 0 5.497973468888957 12.1083135363549 13.113238701094293 2 1 2
1350 113 2 0 4.600006090864403 12.357870660056175 12.542935795097927 2 1 2
1349 113 3 0 4.6088632083358645 11.578092805246824 11.345223551333273 2 1 2
3704 309 1 0 5.278616886315169 9.366865329198134 11.720659352884095 1 0 0
3697 309 2 0 4.457871751172086 8.671534299158374 12.006798235406103 1 0 0
2018 169 3 0 1.0215025010408363 11.290536101712446 13.866999940571565 -1 -1 0
3 1 2 0 8.068307275478666 11.09446944518182 13.57407669637812 1 2 -1
2022 169 2 0 0.7596167347159822 12.286567784251982 10.498096735539322 -1 -1 0
1355 113 1 0 4.680450292016955 13.434616559566805 12.255751808529892 2 1 2
2021 169 3 0 1.2565756767273264 12.120125330430065 11.85973347079135 -1 -1 0
2026 169 1 0 36.60425079125421 11.362036549698507 10.011483684445414 -2 -1 0
2028 169 1 0 1.4633940709240496 12.796490284001992 9.883156273050405 -1 -1 0
2040 170 1 0 6.871290231851906 8.79444481019799 9.201584851202439 0 0 -1
1346 113 3 0 4.755470514955902 11.347004287244635 9.162997353185217 2 1 2
2023 169 1 0 36.04030942803183 9.410725322255544 14.212219754076912 -2 -1 0
860 72 1 0 6.991380026528121 15.193292662571123 13.943076129956994 0 -1 -2
10 1 1 0 7.613653652893419 10.194249871998334 11.109269975206214 1 2 -1
3176 265 1 0 2.7788646262897583 14.918468476554523 8.255613472667704 -1 -2 -2
2387 199 1 0 2.895538732059904 9.926405103256348 8.819762264029126 -1 0 0
2382 199 2 0 2.9238032681409702 8.961611807361322 8.20374248474294 -1 0 0
11 1 1 0 8.749507298046922 11.487898447615917 10.413173867325451 1 2 -1
5 1 3 0 8.00913219496597 11.70431055458201 12.355502070731685 1 2 -1
3528 294 1 0 8.465282969485163 14.593917085732109 12.057553968782454 0 0 0
3761 314 3 0 12.95967267064416 9.227551274342094 11.00048012397565 1 1 2
3754 313 1 0 14.619005124988734 13.947286281157478 13.947473514715446 -1 1 1
559 47 1 0 14.451316378574212 15.418823519318918 10.916100222540742 -2 2 -2
3869 323 3 0 15.104724290667527 9.593658490984167 14.131741584778855 -1 -1 -2
3760 314 3 0 10.759221060960979 8.62626285331852 10.826553593261831 1 1 2
3759 314 2 0 11.925727842193432 8.481173410409934 10.508076099448612 1 1 2
3867 323 2 0 14.18424532915694 8.626966701320862 14.096151725318514 -1 -1 -2
3866 323 3 0 12.983241305286514 9.176346014681812 14.225959561104112 -1 -1 -2
2038 170 1 0 8.432821973363284 8.135368504890295 9.761528031164644 0 0 -1
3768 314 1 0 11.546746111193217 10.624149032143054 11.803348780817945 1 1 2
980 82 1 0 10.507360987231806 10.03111635999597 8.814602073405961 0 0 1
973 82 2 0 10.988255704471099 10.50333917155055 7.9719330327554 0 0 1
981 82 1 0 12.00014492184383 10.307423853021845 7.986057604441812 0 0 1
3762 314 2 0 12.546886933889505 10.582009873939892 11.496948158999812 1 1 2
3767 314 1 0 12.63353787686687 11.156556679819086 10.53449811958422 1 1 2
4 1 3 0 8.011819375535541 9.912157765804633 13.788864124428958 1 2 -1
3523 294 1 0 12.90662276506793 12.047677714307106 14.826929198290811 0 0 0
12 1 1 0 9.306507049338334 10.263097098985925 11.573572081435408 1 2 -1
6 1 2 0 8.405971516592274 10.87388244804603 11.256231283748365 1 2 -1
3527 294 1 0 9.759394535132568 13.198283761552002 11.686646304859785 0 0 0
561 47 1 0 14.118905501361937 13.880471475524702 10.233631833247838 -2 2 -2
3521 294 3 0 10.177173771771065 14.32655108920359 13.369695762681683 0 0 0
3873 323 1 0 11.453369150165264 8.439909216846592 13.19936544898451 -1 -1 -2
3872 323 1 0 11.180383621006516 8.419525958346432 14.894603375397248 -1 -1 -2
3520 294 3 0 11.037170209648476 12.225978750419939 13.305608483714893 0 0 0
3519 294 2 0 10.929203318704902 13.291754393652015 13.809291771743126 0 0 0
3766 314 1 0 13.338702839632 10.84273683605615 12.150607369287094 1 1 2
556 47 3 0 12.252401966513673 13.412270514877388 8.788497006356218 -2 2 -2
554 47 3 0 12.539194344116604 15.221958628418136 10.230527395454686 -2 2 -2
3518 294 3 0 11.668940401854954 13.735912203515273 14.90330095135801 0 0 0
555 47 2 0 12.006212396784944 14.52266215794474 9.160122780122796 -2 2 -2
3522 294 2 0 9.577790062852522 14.281018061687844 12.052589050740432 0 0 0
553 47 2 0 13.690983197486325 14.615604757446471 10.828198354238326 -2 2 -2
3865 323 2 0 11.883536253491148 8.18124420148349 14.155059347904656 -1 -1 -2
3756 313 1 0 15.191722547731418 12.59651339919233 14.846793525097482 -1 1 1
3755 313 1 0 15.83417906996538 12.798239313930514 13.258057596652726 -1 1 1
3749 313 3 0 16.4927092050841 14.176010836170505 14.653464245896565 -1 1 1
1754 147 3 0 21.517161195269754 12.612415672353778 9.740552084249039 -2 -1 0
1759 147 1 0 22.202089483556556 10.671311426901985 9.54835974383401 -2 -1 0
1753 147 2 0 21.465969242744364 11.303978580211082 9.105119249160282 -2 -1 0
1761 147 1 0 21.75269192554565 11.423193689079106 8.018393500016648 -2 -1 0
3137 262 3 0 17.872080330035413 9.611660041295508 8.311688872832034 0 0 2
3750 313 2 0 15.494535589461877 13.31773114755767 14.141609081940114 -1 1 1
3870 323 2 0 16.4414244647318 9.134149850175756 14.446730481573894 -1 -1 -2
1008 84 1 0 19.41068632121776 14.59127378038919 10.497145711726164 -1 1 1
1002 84 2 0 18.639627091884055 14.849571171658507 9.78002966460302 -1 1 1
3875 323 1 0 16.82723728111298 8.233235836532216 13.872912786664022 -1 -1 -2
2068 173 3 0 21.385908504272297 7.8900570222934325 14.049082630532338 -1 1 0
2067 173 2 0 20.312229562372057 8.338517033437867 13.712425870800889 -1 1 0
2072 173 1 0 21.87448077548024 8.684206274032292 11.590837918937027 -1 1 0
2066 173 3 0 19.95020878018132 8.52020819037307 12.426069920463762 -1 1 0
1757 147 3 0 22.34673179892723 14.595465109443555 10.236975563319126 -2 -1 0
999 84 2 0 16.968164491068116 13.636251611465065 8.747929471654617 -1 1 1
3140 262 1 0 16.101421191639425 11.702990335498633 11.35773660725612 0 0 2
2069 173 3 0 19.28675551872565 8.798617718082168 14.502867441091214 -1 1 0
1339 112 1 0 20.33576136131117 11.254422577842236 11.86324214146875 -1 1 1
3136 262 3 0 15.700104834462492 10.005089499413984 8.716120140365842 0 0 2
3135 262 2 0 16.854853092681953 10.033089644320915 9.033779330894793 0 0 2
1333 112 2 0 20.05402660442331 11.86376649727673 12.784490111597911 -1 1 1
998 84 3 0 15.961668422983662 12.777835266867038 9.020474586418617 -1 1 1
3134 262 3 0 17.257098526419238 10.422077006278867 10.271168188853737 0 0 2
1001 84 3 0 17.643285648109433 13.852416096777933 9.866117647929084 -1 1 1
3141 262 1 0 15.345501875644098 10.102699307295723 11.134418784268991 0 0 2
3133 262 2 0 16.272771203570333 10.629576415906183 11.297412420609417 0 0 2
3139 262 1 0 16.770298333492445 10.32471961288563 12.216003647224186 0 0 2
1340 112 1 0 20.48625830645832 11.277964531042244 13.64313660664945 -1 1 1
1341 112 1 0 19.003450920024218 11.880587249575527 12.945977546012106 -1 1 1
1334 112 3 0 20.596038586903052 13.155145648287085 12.779856677945675 -1 1 1
1760 147 1 0 20.408063262549312 11.029854322457593 9.21133145404558 -2 -1 0
2071 173 1 0 20.57439357395511 8.178944506248078 10.442371387564846 -1 1 0
2065 173 2 0 20.960286569500635 8.09000021204212 11.458544907086512 -1 1 0
1006 84 1 0 19.109955900878298 15.003425389104837 8.77815544705966 -1 1 1
1336 112 3 0 22.600078887621613 12.116880133273735 13.324431509860059 -1 1 1
1335 112 2 0 21.954249670140758 13.124236445257727 13.148470840928605 -1 1 1
1773 148 1 0 23.43901656766109 8.08400102159583 9.749510092256465 0 1 1
1344 112 1 0 24.292226668441874 13.867852256982275 12.627934715883338 -1 1 1
1337 112 3 0 22.38584119616173 14.351902082908154 13.305187140857493 -1 1 1
2811 235 2 0 27.68559024023144 13.736302437341177 9.999044509785959 1 2 0
3019 252 1 0 27.764462496188937 8.638592164574879 14.617352585600242 0 1 -1
1755 147 2 0 22.54716001680063 13.453996196012065 9.566423770190658 -2 -1 0
3023 252 1 0 26.988622350989136 14.736136448492545 15.342239173420026 0 1 -1
1447 121 1 0 23.298111586407 10.233165083816523 14.601796437683262 0 0 0
1441 121 2 0 24.36690396046718 10.137716986337258 14.78186395168921 0 0 0
1771 148 1 0 24.98654969530391 8.021816278577562 8.785463213233525 0 1 1
3014 252 3 0 27.55826179234858 10.633174216551117 14.798734907999036 0 1 -1
2812 235 3 0 27.052406658605143 14.613399538060358 10.492702860364234 1 2 0
1343 112 1 0 24.19899859990446 14.622108643396254 14.385109191429489 -1 1 1
1342 112 1 0 23.932479272017467 15.63127776749569 13.011909806020043 -1 1 1
1338 112 2 0 23.794655599783873 14.59000692950442 13.310614739230056 -1 1 1
1756 147 3 0 23.54984861044683 13.252933575279702 8.936424016349642 -2 -1 0
3953 330 3 0 27.70573876100333 9.322666357586169 8.357738919691304 -1 1 0
1452 121 1 0 26.003919815896623 9.445342439054203 10.356052220453984 0 0 0
3960 330 1 0 29.307004275901207 10.709160570941224 8.822262520171194 -1 1 0
3954 330 2 0 28.793102444815187 9.85559059230708 9.22925760939457 -1 1 0
1450 121 1 0 24.445177791769193 10.127655914052637 9.922285985710193 0 0 0
1444 121 3 0 24.10403497900857 9.30833031841198 12.189896620444431 0 0 0
3958 330 1 0 28.237547482033158 10.124242606085705 10.097227529903325 -1 1 0
2813 235 3 0 28.150402075632787 12.73466111354436 10.764333159341158 1 2 0
1451 121 1 0 25.921594361052268 11.10540154641466 9.64610428670108 0 0 0
2820 235 1 0 28.467913263552045 13.646618942577993 12.608717976201358 1 2 0
1445 121 3 0 25.35268155592265 11.01003692148978 11.552615802298437 0 0 0
1446 121 2 0 25.43644505255026 10.376156533427944 10.292697501018663 0 0 0
2814 235 2 0 27.989360956782022 12.799607525948574 12.18811761302098 1 2 0
1442 121 3 0 24.985857171089627 10.797405396441617 13.643373029581378 0 0 0
2819 235 1 0 28.404034361209735 11.931222935069682 12.602227557965207 1 2 0
1443 121 2 0 24.690139004919278 10.313193263643543 12.484883248485868 0 0 0
1764 147 1 0 24.308691238401916 15.358876862433219 10.396489598771817 -2 -1 0
2810 235 3 0 28.032148662133196 13.438781177275024 8.718202376063452 1 2 0
2818 235 1 0 26.89864340127329 12.724928727792474 12.44542696679105 1 2 0
2019 169 2 0 36.50470108061615 11.269468059119689 12.607104520182492 -2 -1 0
2025 169 1 0 35.54957345211668 10.712155322383566 15.333494740340392 -2 -1 0
2020 169 3 0 35.468127345083296 10.641705368820865 12.333034515406565 -2 -1 0
2697 225 1 0 31.575845495612477 8.145464651507815 8.189696663779554 1 0 -1
3593 300 3 0 31.304288092679272 14.36723431343362 9.304360625095258 -1 1 0
165 14 1 0 35.24002162064586 12.569943385383871 7.836669735760824 -1 -1 -1
384 32 1 0 32.881017440352046 8.430089532952016 13.819437144636604 0 1 -1
382 32 1 0 34.09500423646283 8.710749851776757 12.556512461057975 0 1 -1
649 55 2 0 34.83225921645088 9.20710442914558 9.700907404449978 1 -1 0
655 55 1 0 34.38027103063713 8.225132453237656 9.7437609736634 1 -1 0
652 55 3 0 32.231733751097806 9.796570225898309 9.240226942052503 1 -1 0
656 55 1 0 35.95640985776722 9.20174792055415 9.554368095542143 1 -1 0
651 55 2 0 33.03528943430693 10.355626402368074 8.545000425886755 1 -1 0
657 55 1 0 34.57141850995885 9.716840958853098 10.614674706985298 1 -1 0
378 32 2 0 33.62300717492815 7.970401581332602 13.224782766913602 0 1 -1
163 14 1 0 34.122652214528465 13.395085892755507 9.109244117185975 -1 -1 -1
3596 300 1 0 32.28923925165341 10.862309914273046 11.349451194608895 -1 1 0
599 50 1 0 34.52800494443986 15.496922779165088 12.75787003195746 -1 0 1
3595 300 1 0 31.761325197392498 12.248604164809079 12.421051505002655 -1 1 0
1588 133 3 0 33.4135520435674 13.683405080296689 14.921482290417844 0 0 -1
3589 300 2 0 32.40823299389388 11.936520354919802 11.557855946349116 -1 1 0
650 55 3 0 34.34639745070089 10.025533978452538 8.606569967888625 1 -1 0
598 50 1 0 35.74527222549144 14.254602422613159 13.537610783005437 -1 0 1
3592 300 3 0 30.865705371791893 14.299039750919082 11.48336243684818 -1 1 0
3274 273 1 0 29.9970441394745 15.946105695926517 14.790077752491293 0 2 1
659 55 1 0 31.32457747967062 12.616512966491737 7.620032293389993 1 -1 0
3590 300 3 0 32.05872972508671 12.647218328354532 10.386070527061495 -1 1 0
3591 300 2 0 31.423787513191016 13.823740580503713 10.480456182779609 -1 1 0
158 14 3 0 35.6784811824492 14.653249434462461 8.324920820761962 -1 -1 -1
3597 300 1 0 33.51793249708224 12.09830075021979 11.74701489292299 -1 1 0
2027 169 1 0 35.75116829677122 12.885399655744123 10.525047272739146 -2 -1 0
3959 330 1 0 29.421393167011043 8.976945154858985 9.365902485338255 -1 1 0
861 72 1 0 8.238592021245873 16.179333651156085 14.729326238354004 0 -1 -2
3178 265 1 0 4.288445808855071 16.480067741231665 13.479868133357078 -1 -2 -2
1380 115 1 0 1.8979222607893345 21.3211425839102 7.869218058635076 -1 -1 0
167 14 1 0 1.06070802113222 18.102080803177785 9.881581462193422 0 -1 -1
3179 265 1 0 2.6543109898003725 17.119759757542074 13.563398113509175 -1 -2 -2
595 50 1 0 36.48716110025034 20.15569504143131 15.087363669188964 -1 0 1
853 72 2 0 7.47290474263326 15.449220720397449 14.943540137544648 0 -1 -2
2623 219 1 0 6.179080002747366 17.361006539854486 12.34585846083522 0 2 1
1374 115 2 0 0.8971164874149696 21.519479877320567 8.227213263567709 -1 -1 0
1738 145 1 0 4.032356163933415 19.232793781198964 11.636550300682616 1 -2 1
3649 305 2 0 6.208652191807067 18.556804096127557 8.418320150525703 1 -1 -1
1739 145 1 0 3.1309033978496554 19.40027280585063 13.234200272808575 1 -2 1
3657 305 1 0 5.311070197640875 18.363346642449848 9.009056401504205 1 -1 -1
3172 265 3 0 3.3713374649658685 17.15413576724607 11.054499109480792 -1 -2 -2
3650 305 3 0 6.7904192493766695 17.23886732528606 8.165930131590814 1 -1 -1
1732 145 3 0 3.147651076796818 21.87089369590111 14.3700090382722 1 -2 1
3655 305 1 0 7.022213901529909 19.03068924693492 8.908795319724673 1 -1 -1
3169 265 2 0 3.2371631284965723 15.632399187635398 8.908213949906928 -1 -2 -2
3171 265 2 0 3.134814879700011 15.981768127168266 11.194856044440089 -1 -2 -2
3170 265 3 0 3.0508566977007776 15.129099235247043 10.213840408902835 -1 -2 -2
3173 265 3 0 2.9171430535090876 15.4209807492494 12.389480785747656 -1 -2 -2
3174 265 2 0 3.245905310722925 16.19669170264515 13.48646733305115 -1 -2 -2
3177 265 1 0 2.682878406547279 16.565214680851295 8.74422178838889 -1 -2 -2
3180 265 1 0 3.148509282812428 15.499631613199323 14.341645441842902 -1 -2 -2
1734 145 2 0 3.5513241176917125 19.95912084411712 12.349454689179467 1 -2 1
2624 219 1 0 7.132778200435584 18.497243031386766 13.330849031017836 0 2 1
2617 219 2 0 6.9279018724416375 18.149739489926393 12.287480360496984 0 2 1
2625 219 1 0 6.597819370495117 19.029827698948008 11.770859491840529 0 2 1
1740 145 1 0 2.799884628328646 20.544481528089644 11.89586540839623 1 -2 1
2278 190 1 0 6.5825084441437065 21.92838686782758 10.17331217382397 1 1 0
3175 265 1 0 4.332316842880436 15.692829794541103 8.718455061251053 -1 -2 -2
2280 190 1 0 5.239094120660535 22.34141767199001 8.997605670110207 1 1 0
1731 145 2 0 4.209728193429876 21.66253310065774 13.822660730531751 1 -2 1
1733 145 3 0 4.5974223237126015 20.84910301523889 12.833012300502658 1 -2 1
2146 179 1 0 7.187800816623962 20.40447868718085 14.577405590564153 1 0 -1
557 47 3 0 11.132459852046336 15.355218186899503 8.68451428757338 -2 2 -2
560 47 1 0 13.397660811917623 14.162422307528937 11.799270869906985 -2 2 -2
859 72 1 0 7.891977524629812 14.486802191503864 15.366326685876722 0 -1 -2
3454 288 1 0 9.250946277563791 21.069637381119406 13.053865037115322 0 0 0
2618 219 3 0 8.003854390501818 17.57765261537329 11.58477076272916 0 2 1
2628 219 1 0 11.238172371394073 17.861605740816152 8.984640642298434 0 2 1
3158 264 3 0 11.051057347972437 19.067154639545368 14.447755114237117 1 0 2
3163 264 1 0 10.151990796883839 17.46331019719946 13.524911463950847 1 0 2
2620 219 3 0 8.825017934675692 19.5945992665607 10.890036872212686 0 2 1
2627 219 1 0 11.94871077463361 18.296457372448824 10.699160707663907 0 2 1
3944 329 1 0 13.749269415218475 18.364688032284736 13.048781956219562 2 -1 0
3937 329 2 0 14.066298276859797 17.337831270617965 12.883159090126338 2 -1 0
3938 329 3 0 13.698458048355315 16.53851345444291 14.037116871363382 2 -1 0
3943 329 1 0 13.632353171489731 16.85624290306619 12.029226090658684 2 -1 0
3157 264 2 0 10.452498067289973 17.712417298575943 14.559127272791676 1 0 2
3164 264 1 0 11.170989009064849 17.040887602237405 14.977968544783272 1 0 2
2622 219 2 0 11.11762580524931 18.334934731603756 9.973816928206453 0 2 1
2626 219 1 0 10.945032311814968 19.42274433637011 9.767206128344647 0 2 1
2621 219 3 0 9.977999053899275 17.662207889797504 10.536384984704677 0 2 1
3526 294 1 0 10.133237493868743 14.95001789688495 11.375394833120641 0 0 0
2619 219 2 0 8.920676603048866 18.413580438463907 10.939578778280339 0 2 1
3448 288 3 0 11.164534231571716 22.024565409973558 11.44357656580136 0 0 0
3453 288 1 0 10.02766885920881 22.065828396514128 8.414865513602624 0 0 0
1007 84 1 0 18.084735587682875 15.762811908954593 10.029368187763549 -1 1 1
3912 326 1 0 19.517191277159746 18.242252488432147 8.872775896163763 2 -1 0
3428 286 1 0 19.93434322129479 21.085018362591093 11.521608147814263 2 0 0
3906 326 2 0 20.371415599231344 18.59345070416492 9.405497956791642 2 -1 0
3911 326 1 0 21.27164989022785 18.475356678443152 8.825910463239719 2 -1 0
3945 329 1 0 15.202086877235852 17.442013767620622 12.807784298372143 2 -1 0
3427 286 1 0 21.206573711293483 22.015571290243543 10.628476234943182 2 0 0
3421 286 2 0 20.18805449841936 21.967344494653204 10.973242808998448 2 0 0
3443 287 1 0 15.194566461820413 18.07550661088728 10.699536758194519 0 0 2
3907 326 1 0 18.236509738202635 16.197698897904175 13.473328944487355 2 -1 0
3444 287 1 0 14.760446172412774 19.781754479721794 10.146572312202077 0 0 2
3438 287 2 0 15.521359024157023 19.182818646598008 10.734124222430259 0 0 2
3442 287 1 0 16.459311994126402 19.177198012241654 10.152578438715599 0 0 2
3440 287 1 0 17.980137044981806 21.62299405238136 14.995222215857119 0 0 2
3434 287 3 0 16.784661913338766 20.7363758870351 13.578995686869337 0 0 2
3902 326 3 0 19.858377681278586 16.75760078341384 12.35776583097141 2 -1 0
3904 326 3 0 18.53802805878825 18.371366938404822 11.352488604169777 2 -1 0
3903 326 2 0 19.504387393766986 17.68861755875532 11.386751438894484 2 -1 0
3909 326 1 0 18.738714094135503 17.95658845338389 13.627813663134875 2 -1 0
3901 326 2 0 19.035034010634394 16.882242918663607 13.54893068582246 2 -1 0
3908 326 1 0 19.654931600037017 16.646708232478893 14.434290754943616 2 -1 0
3437 287 3 0 15.806912074467164 19.591937746730324 12.029958279546657 0 0 2
3905 326 3 0 20.54369080806201 17.770558356490245 10.543742660363478 2 -1 0
3436 287 3 0 17.037270279835113 21.294637650107898 11.323587568421887 0 0 2
3435 287 2 0 16.662528216841352 20.586334756266606 12.245242453051842 0 0 2
3910 326 1 0 20.26472557492942 19.654549531421825 9.666832996167331 2 -1 0
3433 287 2 0 17.73512710370469 21.82308505526049 13.94391489510185 0 0 2
1479 124 2 0 22.048452950380863 20.862689261608896 14.375761932941137 1 -2 1
2770 231 1 0 25.380232211605055 21.666688663536796 14.053441174537523 0 1 0
127 11 1 0 26.57473501818688 16.978333795796935 7.832456356870069 -2 -2 -2
1762 147 1 0 23.49751578304541 15.697304801557186 8.839805298977437 -2 -1 0
2816 235 1 0 27.695902291302207 15.296482528468934 7.75431823678469 1 2 0
1484 124 1 0 21.704058239701972 18.61469479588731 13.112659123881723 1 -2 1
2771 231 1 0 26.40863324581744 22.54639257057451 15.267833211067565 0 1 0
1477 124 2 0 22.638130207004924 19.111352079285776 12.937830369101434 1 -2 1
129 11 1 0 26.594564512246453 17.006165158232367 9.63744710445284 -2 -2 -2
123 11 2 0 25.523483673742998 19.21020957816954 9.396901146058095 -2 -2 -2
122 11 3 0 26.564315374835516 18.9110643853092 8.706858265794454 -2 -2 -2
2940 245 1 0 28.435698018515016 18.139307712989474 13.489100026776716 -1 1 1
121 11 2 0 26.976578772999407 17.54597714780118 8.72924120700436 -2 -2 -2
128 11 1 0 28.03556288945539 17.516292360972717 8.662003192769413 -2 -2 -2
2933 245 3 0 26.458289405864143 18.153055375610087 13.793768552537053 -1 1 1
126 11 2 0 24.22089354620075 21.007022107057846 10.174218798147924 -2 -2 -2
2934 245 2 0 27.5254985045975 17.549020561643843 13.15912943426218 -1 1 1
2939 245 1 0 27.26550472802279 17.762684456312474 12.110042527114139 -1 1 1
2938 245 1 0 27.649128307890724 16.479394986087964 13.372089961436542 -1 1 1
124 11 3 0 24.729788783125578 18.41913895382926 9.919537258466153 -2 -2 -2
125 11 3 0 25.330201244965373 20.550998908498098 9.410459507220587 -2 -2 -2
2766 231 2 0 26.30155704911348 22.254219685513913 14.205164308882372 0 1 0
2765 231 3 0 27.360624386562577 21.311595038060542 13.897568860157364 0 1 0
132 11 1 0 24.345821459157776 22.170540995357346 10.152837611057842 -2 -2 -2
131 11 1 0 24.314997002387415 20.711546369314963 11.180897053227238 -2 -2 -2
492 41 1 0 27.80927378045498 20.232755640584042 10.97561391535749 1 0 -1
486 41 2 0 28.42811701826717 20.935060863720512 10.36985514188976 1 0 -1
490 41 1 0 28.048594273453254 21.92682824085716 10.62567706783723 1 0 -1
1758 147 2 0 23.309521603064802 15.606933267418055 9.941919303758008 -2 -1 0
1763 147 1 0 22.988884290698238 16.580064828648258 10.367387382203828 -2 -1 0
2763 231 2 0 28.57036298045132 21.642191714540736 14.361193315918689 0 1 0
130 11 1 0 23.30762817028834 20.60314085823982 9.636632692321625 -2 -2 -2
491 41 1 0 28.310617095270473 20.73832970732851 9.349671382274439 1 0 -1
1485 124 1 0 22.899273242786137 18.976213327180247 11.897609038520695 1 -2 1
1478 124 3 0 22.456654596247155 20.55798416610477 13.191045692034908 1 -2 1
1483 124 1 0 23.40262878053349 18.678121447881416 13.523317437564312 1 -2 1
597 50 1 0 35.177835952003186 19.940974324291528 13.909857208989264 -1 0 1
3599 300 1 0 30.292083396072563 15.950732373442657 8.452750344829735 -1 1 0
592 50 3 0 35.363957096962935 17.84314580268573 12.331562151966166 -1 0 1
3600 300 1 0 30.69859759801058 16.15451079649039 10.17380588416948 -1 1 0
2761 231 2 0 30.74156025381846 20.80127732264382 14.51152639048646 0 1 0
160 14 3 0 34.19576448666484 16.357595816790198 8.062486765606828 -1 -1 -1
2767 231 1 0 31.022399171524764 21.363039517262248 13.584213077255159 0 1 0
166 14 1 0 35.25836759511351 18.275689125075026 9.443577098885878 -1 -1 -1
3276 273 1 0 31.57933948968288 15.867697800590594 13.785536508113406 0 2 1
1378 115 1 0 0.8920239361919258 20.790050426007355 8.968221884444386 -1 -1 0
3598 300 1 0 31.97839611333173 16.379436789121147 8.958301770876403 -1 1 0
3594 300 2 0 31.072465931521844 15.75842061019727 9.230578734293834 -1 1 0
487 41 1 0 32.537910910946785 18.473424391496636 12.755204660203635 1 0 -1
481 41 2 0 32.064886852749055 18.377761107575413 11.770154238520673 1 0 -1
483 41 2 0 30.23580042907236 19.615280609274645 10.924226041754713 1 0 -1
489 41 1 0 32.83820182933778 18.133426122089116 11.090373056888467 1 0 -1
593 50 3 0 36.26370393058435 16.24327120159609 13.72755568943897 -1 0 1
482 41 3 0 31.5067784639427 19.614042505199098 11.353622381811691 1 0 -1
591 50 2 0 35.969416204203625 17.466531739799667 13.313233972381603 -1 0 1
162 14 2 0 36.252494667097814 17.956479825470122 9.121701320441222 -1 -1 -1
488 41 1 0 31.309834538196586 17.6092199749855 11.820391014460213 1 0 -1
168 14 1 0 36.572209171787826 18.535138437503665 8.200094487044014 -1 -1 -1
484 41 3 0 29.55448469067328 18.610780704530264 10.695242504312091 1 0 -1
594 50 2 0 35.589853661916415 15.211756145193577 12.94533073321441 -1 0 1
1224 102 1 0 32.94964982416014 21.241007124532548 11.626361768274663 1 2 0
159 14 2 0 35.26623436254682 15.917648466124282 8.300696804348673 -1 -1 -1
161 14 3 0 36.344849294297134 16.568131839379184 8.726327580925698 -1 -1 -1
1218 102 2 0 33.645363965517554 22.073043201957276 11.98809980081321 1 2 0
2769 231 1 0 31.212466669453356 19.799451848118643 14.401698460404713 0 1 0
600 50 1 0 36.150471193291196 15.128183130364937 11.995364647395652 -1 0 1
1223 102 1 0 34.10312582129312 21.76784535866633 12.879272506669276 1 2 0
485 41 3 0 29.813658489016987 20.89178591743164 10.826484682072854 1 0 -1
590 50 3 0 36.55660753689168 18.29723606188596 14.239311077321029 -1 0 1
3270 273 2 0 31.028339264279264 16.36652328128426 14.588849093782237 0 2 1
2762 231 3 0 29.327652430177533 20.58080420977265 14.546560791297692 0 1 0
596 50 1 0 0.9415620044592643 20.26404086477509 13.311271694952339 0 0 1
589 50 2 0 36.2530230031059 19.72542221978434 14.055114310061827 -1 0 1
3268 273 3 0 33.580190647091236 17.19274468811158 14.874377280918349 0 2 1
3275 273 1 0 30.712075678147148 17.363983722346646 14.240134678786887 0 2 1
2489 208 3 0 1.5580107827723058 26.623007311352893 14.254294637753746 0 -1 1
1735 145 1 0 4.981235301510408 24.126519316622648 14.48809111490626 1 -2 1
1729 145 2 0 5.30902638144736 23.36097006499906 15.16635859060821 1 -2 1
2496 208 1 0 2.532489034987558 24.88422012739875 14.547290762395196 0 -1 1
424 36 3 0 3.5863962113565053 23.870722206741732 7.691282152685341 -1 -1 0
2486 208 3 0 1.0577905666601235 28.400028775785724 13.174889826831235 0 -1 1
2271 190 2 0 7.505437488516703 23.529463493681444 8.14470498314868 1 1 0
2279 190 1 0 5.364305271000352 23.20005873292597 10.557043549095388 1 1 0
2274 190 2 0 5.932561081097705 22.732258746814786 9.760567970888903 1 1 0
1730 145 3 0 5.403591061588428 22.24494861194889 14.275329456429938 1 -2 1
2273 190 3 0 6.754611668616677 23.773648480668626 9.20172805482006 1 1 0
431 36 1 0 3.9155774797629572 27.62611505422772 8.002074823996702 -1 -1 0
430 36 1 0 4.285859811067782 26.33808476048041 9.194787717046488 -1 -1 0
426 36 2 0 3.7823469442649404 26.583409472190564 8.278409575880866 -1 -1 0
432 36 1 0 2.70212656295112 26.434766462087772 8.304329273382264 -1 -1 0
604 51 3 0 3.955212317166304 28.312407855459007 10.880132560590692 0 1 -1
1373 115 3 0 0.8619271474429074 22.83598852971913 8.9002090228164 -1 -1 0
2488 208 3 0 3.1211672508338455 28.207933695614443 14.292140309915393 0 -1 1
1376 115 1 0 2.266682486157301 25.71295607453382 11.528075515159793 -1 -1 0
605 51 3 0 6.005064813160711 27.637085323904056 11.681261749403935 0 1 -1
2487 208 2 0 2.0227218392860453 27.824018817807065 13.968551639347272 0 -1 1
1371 115 2 0 1.5587299587155854 22.961382333820616 9.999874137962683 -1 -1 0
3931 328 1 0 5.431437447465754 29.05856018103758 14.375973156228357 1 0 0
606 51 2 0 5.47829643629606 26.382690580668864 11.877070230119033 0 1 -1
3925 328 2 0 6.452738014170774 29.345110246600793 14.423958918472104 1 0 0
1370 115 3 0 1.4507278399891832 24.23642713093399 10.394505161676424 -1 -1 0
603 51 2 0 5.122544258833819 28.5617805795929 11.120242136942753 0 1 -1
1372 115 3 0 2.272320604862021 22.145318861700183 10.536949155608317 -1 -1 0
1375 115 1 0 2.5779465021588006 24.023156025608035 12.093631501783438 -1 -1 0
611 51 1 0 5.755458580503115 25.749533265193318 11.070302813778952 0 1 -1
3933 328 1 0 6.8321966252677635 29.284470633481416 13.358575977108854 1 0 0
1369 115 2 0 1.8348603482406516 24.684843356574152 11.668722026568455 -1 -1 0
1377 115 1 0 0.9317315146312278 24.708722940176667 12.353750807396565 -1 -1 0
612 51 1 0 5.978151960192867 25.92723409481433 12.743447140000816 0 1 -1
610 51 1 0 4.445840020614446 26.412803021582683 12.111150167309596 0 1 -1
1988 166 1 0 6.926007793798901 28.415533791535978 8.340788483164326 2 0 -1
1989 166 1 0 7.4143041790058435 26.625103106556264 8.521078611056385 2 0 -1
1981 166 2 0 7.670535997248218 27.66781157552036 8.543290198006153 2 0 -1
3362 281 3 0 12.43359879117922 25.49109231919297 8.548878771499814 1 -1 -1
298 25 1 0 14.59942919090092 27.230117511060065 8.481892722109723 -1 -1 1
1995 167 2 0 14.899407005192606 25.048365163765293 11.433575390157786 1 0 1
1994 167 3 0 13.914611927366721 24.28689412983176 11.792368993168049 1 0 1
1996 167 3 0 14.962640179385843 26.272601585186987 11.479490043103063 1 0 1
934 78 1 0 9.221615315451286 29.68877006690836 12.579205860302926 -2 -1 1
931 78 1 0 14.45486803964438 29.57213441764593 14.427737492944805 -2 -1 1
3568 298 3 0 7.945700096089991 25.229425202414323 14.783777356301046 -1 1 1
3567 298 2 0 9.150407875823387 25.357666080819097 14.659603215566547 -1 1 1
3928 328 3 0 9.276584476970053 28.82977600123953 14.822228969440472 1 0 0
925 78 2 0 13.921467451993063 29.08704146576472 13.545565121199155 -2 -1 1
933 78 1 0 14.707771919160972 28.864029251588768 12.803758877566374 -2 -1 1
3456 288 1 0 8.430285256534217 22.475187413993602 13.95946643115944 0 0 0
3450 288 2 0 9.263085467626128 22.152398072390234 13.330077093766896 0 0 0
3455 288 1 0 10.253723562555956 22.286041734813114 13.854587120698959 0 0 0
293 25 3 0 13.788693707263773 29.161960008879657 8.807861180348317 -1 -1 1
2001 167 1 0 12.691447920852406 25.741960762822398 12.866700655463408 1 0 1
3449 288 3 0 9.171680919004281 22.88174779789292 12.046862424039638 0 0 0
932 78 1 0 13.446988018586083 28.14367669443113 13.843037984665045 -2 -1 1
1993 167 2 0 12.89947356304017 24.68971264324376 12.667118727514799 1 0 1
3452 288 1 0 11.580645216461093 22.274179186611054 9.352725009567093 0 0 0
2000 167 1 0 12.931218396419052 24.12717563041163 13.638058552019645 1 0 1
1999 167 1 0 11.930224568183377 24.470168768842356 12.234860885449972 1 0 1
3447 288 2 0 10.17459819216085 22.736414627651342 11.228426440857385 0 0 0
928 78 3 0 11.762786036105032 28.59694011652989 11.930649853756321 -2 -1 1
3451 288 1 0 10.974656563983817 23.615449070389253 8.360037745764677 0 0 0
3575 298 1 0 8.86362791944098 25.675051674622217 11.700650917544797 -1 1 1
3574 298 1 0 9.883331340249555 27.263166195823594 12.016854428667962 -1 1 1
3570 298 2 0 9.172608743542222 26.472965365849905 12.43496552665347 -1 1 1
3569 298 3 0 9.78012751431143 25.96430313002507 13.679350210888355 -1 1 1
3445 288 2 0 10.716436005206956 22.76602130766879 8.974973123709429 0 0 0
3576 298 1 0 8.236108202903472 26.946514898972982 12.710511667794698 -1 1 1
3446 288 3 0 9.94937437120352 23.26521857761552 10.029651420865129 0 0 0
3368 281 1 0 10.59831609694846 26.686928749538204 8.431622414625814 1 -1 -1
3361 281 2 0 11.388929503955497 26.28553448928599 9.182712069245504 1 -1 -1
3367 281 1 0 11.758063441937725 27.22622617238987 9.683058565268588 1 -1 -1
3369 281 1 0 10.920447745408651 25.563374458100494 9.845387192890316 1 -1 -1
1987 166 1 0 8.190271776889908 27.892251880627004 9.462398434798315 2 0 -1
1016 85 1 0 19.062682853131406 27.588415775954953 13.981506119537297 0 -1 1
1015 85 1 0 19.719877054408986 28.995776468825376 14.8683045779938 0 -1 1
2003 167 1 0 17.812333638664935 24.152945728576505 10.412480680814179 1 0 1
1304 109 1 0 20.933587848105734 25.982780404886093 9.200048410205552 0 0 0
1297 109 2 0 21.442866573291237 26.912324566358038 9.412597246425618 0 0 0
3425 286 3 0 20.655316776002188 24.792372750357423 12.937009310735943 2 0 0
1997 167 3 0 15.877463630866544 24.27242647407797 10.901191216556345 1 0 1
1307 109 1 0 16.90980183228591 27.853704104911408 11.398020193772306 0 0 0
1298 109 3 0 20.762941204491955 27.551054584686714 10.556014145941774 0 0 0
1299 109 2 0 19.523732677330337 27.850232178561864 10.355769463566409 0 0 0
2004 167 1 0 16.91172164514215 25.765952213328834 9.966191051005447 1 0 1
300 25 1 0 14.795222444329582 28.03966596997415 10.176614483217186 -1 -1 1
3430 286 1 0 21.426771383689402 26.137322714815344 14.253955247262589 2 0 0
1308 109 1 0 17.380536097853707 29.318500773218215 12.359016589092464 0 0 0
3885 324 1 0 18.207284491366767 23.444807729766964 7.880700940107112 1 -2 2
3883 324 1 0 17.638993813747295 25.089434969482525 7.482803902014663 1 -2 2
3884 324 1 0 16.49775950233454 23.961199414708606 8.047376271676471 1 -2 2
3422 286 3 0 19.917394990597714 23.07311450853596 11.850523381185079 2 0 0
2002 167 1 0 17.454120575996594 25.436472199304358 11.639680336883483 1 0 1
1301 109 3 0 18.937470491382314 28.277836310929153 11.50177898509198 0 0 0
1998 167 2 0 17.13738029400082 24.955350717627557 10.710496454490167 1 0 1
3423 286 2 0 20.93959226950682 23.943972643901173 11.890081755067447 2 0 0
1302 109 2 0 17.62857350085638 28.700629345134665 11.494316722665477 0 0 0
1300 109 3 0 18.91593502161593 27.66589934454051 9.369472689768214 0 0 0
294 25 2 0 14.813834910553666 28.138984572645704 9.070832500864746 -1 -1 1
3426 286 2 0 21.69796842231607 25.74055813510916 13.261845258887552 2 0 0
3424 286 3 0 21.859883085700265 24.051633299612817 11.148769092257902 2 0 0
1009 85 2 0 19.08872532665283 28.069127885428944 14.96508045310708 0 -1 1
1481 124 3 0 21.80341392377774 22.191648288950617 14.471526881007819 1 -2 1
3439 287 1 0 17.18076850250197 22.770050070627406 13.768748477101044 0 0 2
3441 287 1 0 18.624248722869876 21.668462764361177 13.302240733874257 0 0 2
3429 286 1 0 19.540833951266467 21.884911264041452 10.09727382408584 2 0 0
299 25 1 0 15.763883285465795 28.33371750610213 8.70049811087053 -1 -1 1
1305 109 1 0 21.611931257342878 27.569095547452907 8.547879926337108 0 0 0
1541 129 3 0 23.523095346344192 28.95160808400354 13.758258623530423 1 1 0
1539 129 2 0 24.167837594334888 28.27764216575516 12.715110436217866 1 1 0
3315 277 2 0 29.260136401784926 28.510448082338407 14.931298534578827 -1 1 0
3431 286 1 0 22.75260047855612 25.328965449654103 13.36343053637532 2 0 0
1543 129 1 0 26.439942083084397 28.62375477652823 11.977786493653664 1 1 0
1893 158 1 0 23.60159014406312 23.226611751229363 7.221930411697627 0 0 0
508 43 3 0 25.061914897635926 27.47552337724734 7.863443291939911 0 1 0
1537 129 2 0 25.856961913140594 29.288944221835145 11.390436717366136 1 1 0
1538 129 3 0 24.460668409355396 29.186549476277783 11.791333481300013 1 1 0
1540 129 3 0 24.311999764866908 27.065040957370314 12.65487416124527 1 1 0
1022 86 3 0 29.09283002039503 23.919795421187004 7.943544800698614 -1 -1 1
1029 86 1 0 27.375190547356265 22.86365708174735 7.553745601434288 -1 -1 1
2808 234 1 0 25.268278514141862 23.810906081894217 9.91045764955449 -1 0 -1
2807 234 1 0 25.94275814754266 25.499016834080823 9.777744563773002 -1 0 -1
2764 231 3 0 29.002481386489983 22.748709729575218 14.589449079234805 0 1 0
2806 234 1 0 25.021190702410614 25.033629307206322 11.294007728984525 -1 0 -1
3432 286 1 0 21.63667309969636 26.54971664770509 12.471940817179508 2 0 0
2802 234 2 0 25.713686512663593 24.64095328037471 10.517459788265587 -1 0 -1
3323 277 1 0 26.777186624565584 27.853300359167584 14.906302090230248 -1 1 0
2799 234 2 0 27.87773836179762 24.935876965903137 11.427430567084443 -1 0 -1
2804 234 1 0 29.345902752394696 25.738455671685777 13.287023874726907 -1 0 -1
2801 234 3 0 26.93597560311306 24.05120031409321 11.077158800769643 -1 0 -1
2798 234 3 0 28.87004047511017 24.23665688342614 11.945148042624023 -1 0 -1
341 29 3 0 28.6342836262985 28.947191018960975 9.332441430061374 1 -1 2
2800 234 3 0 27.840254246626877 26.151313047599295 11.28242693878268 -1 0 -1
2772 231 1 0 26.354836992566145 23.113625572451102 13.510475635767223 0 1 0
1303 109 1 0 22.499695178214772 26.665811019926753 9.765218479803876 0 0 0
3314 277 3 0 30.498472599964156 28.400642582322526 14.383415727665597 -1 1 0
3320 277 1 0 32.016399387842554 29.072258002526816 13.22483668703343 -1 1 0
3313 277 2 0 31.12749884437231 29.488767727145095 13.757266726609517 -1 1 0
1222 102 1 0 34.552284557963915 22.072039061121878 11.29887158222238 1 2 0
2609 218 3 0 34.96069071721803 29.381349875901375 10.538025910826578 -1 1 0
2616 218 1 0 34.56424806306297 27.50726659043857 11.194150758167591 -1 1 0
346 29 1 0 30.629794319050987 28.297269113784647 9.348352013340202 1 -1 2
347 29 1 0 29.93044186912263 28.34019442423957 10.880989512205574 1 -1 2
1031 86 1 0 32.678306474467725 25.566917676188716 9.25433309462992 -1 -1 1
1219 102 1 0 33.39221547862803 27.346623534994155 12.903000249209265 1 2 0
1032 86 1 0 33.09182903193191 24.39343896391722 8.04824678809637 -1 -1 1
342 29 2 0 29.703326838926618 28.10678858937583 9.829711333957867 1 -1 2
1026 86 2 0 32.378867737846676 25.168979433073783 8.319457535588077 -1 -1 1
1025 86 3 0 31.03484133644784 24.64337910212932 8.600054528664701 -1 -1 1
1785 149 1 0 31.810518901022387 24.320613227436677 15.167103266613953 -1 0 0
348 29 1 0 29.34688100614105 27.017953618923872 9.754528027229867 1 -1 2
2803 234 1 0 30.624644985980368 25.414520562088008 12.137014575329692 -1 0 -1
1221 102 1 0 34.45431793747527 26.147595603940218 13.830877218097186 1 2 0
2610 218 2 0 35.211113778456415 27.991761606345637 10.50924838011163 -1 1 0
1220 102 1 0 32.72808175516399 26.759070935177444 14.343044794143758 1 2 0
2614 218 1 0 35.138899383646304 27.700488484862717 9.447261169188533 -1 1 0
2805 234 1 0 30.265283232285345 24.216638844205374 13.350834148893648 -1 0 -1
2615 218 1 0 36.21816294212749 27.800094303977662 10.946325780320793 -1 1 0
1217 102 3 0 32.99726973705531 23.310443399033364 11.9604848795379 1 2 0
1216 102 3 0 34.88070434451327 24.196382485475976 12.723276033403558 1 2 0
1215 102 2 0 33.685818957220484 24.260422150310582 12.517459719446478 1 2 0
1213 102 2 0 33.3961732668677 26.471235485263186 13.524601542847776 1 2 0
2797 234 2 0 29.821831681824996 24.962735944787624 12.729735312381262 -1 0 -1
1214 102 3 0 32.85479908355523 25.36525706950412 12.696202315381756 1 2 0
940 79 3 0 0.8975312161104025 35.42943347511707 14.471490252386664 1 0 -1
3104 259 1 0 5.911769435594119 34.98402082912321 14.086912518839155 0 0 0
2492 208 1 0 1.8998840915621782 29.643816270481153 11.69686382529636 0 -1 1
2485 208 2 0 1.3901221799421837 29.721101236964323 12.61267453635275 0 -1 1
2493 208 1 0 36.415284510199456 30.227311443790715 12.39481725689195 -1 -1 1
2491 208 1 0 2.0515789092823673 30.26670839418928 13.373189977906044 0 -1 1
3411 285 2 0 6.205499549606342 0.7170631913731711 11.040711679603145 0 1 3
3412 285 3 0 5.687665602863067 36.30787291251466 12.074647865315706 0 0 3
3410 285 3 0 6.183444929571237 36.07347932532796 9.889549805731674 0 0 3
3103 259 1 0 6.630952950000343 33.47240407771048 14.62767237961382 0 0 0
3105 259 1 0 4.918741120065723 33.589640961438775 14.254030509014285 0 0 0
1150 96 1 0 6.778379665730904 31.73160446356889 7.688790154321894 -2 -1 -1
3415 285 1 0 4.137999053873956 35.76279144639518 9.588400129680283 0 0 3
3099 259 2 0 7.192482732807149 33.97580402211997 11.90266301878456 0 0 0
609 51 1 0 5.517532851127756 31.683263781240747 10.683681748989274 0 1 -1
3409 285 2 0 5.043136985876316 35.24469521299484 9.558763243684924 0 0 3
601 51 2 0 4.8553437723194195 30.806046382963313 10.794920632333435 0 1 -1
2558 214 3 0 1.4924143714058113 34.190180838486846 8.31289295801168 -1 0 2
602 51 3 0 5.76090210661037 29.698548531672714 10.973335710234831 0 1 -1
607 51 1 0 4.277792697304594 30.68672863251346 9.889437847336994 0 1 -1
3416 285 1 0 5.2297788082255865 34.85160753447982 8.577201478851403 0 0 3
2560 214 3 0 2.057083096642559 32.218295722595286 9.341388785502206 -1 0 2
2559 214 2 0 1.7569348013312494 33.39411734200864 9.353531263143479 -1 0 2
3417 285 1 0 4.918257346952787 34.39630546127175 10.31085142600051 0 0 3
3932 328 1 0 6.5131452175372075 30.35954894428034 14.748599020475371 1 0 0
3097 259 2 0 5.865450601063775 33.947719664181484 13.987541346378578 0 0 0
608 51 1 0 4.215774608787272 30.89339479807134 11.695353915757881 0 1 -1
2566 214 1 0 2.8125513647970095 33.40149465447542 12.037005766474465 -1 0 2
2567 214 1 0 1.2584133251799363 34.247175514218526 12.408523574207914 -1 0 2
2562 214 2 0 1.7872254872071205 33.51017571432885 11.65647445690702 -1 0 2
2561 214 3 0 1.7486313881192765 34.210333454309634 10.441211985383879 -1 0 2
3101 259 3 0 7.3673030042189245 33.12654234391553 10.891902124273416 0 0 0
3098 259 3 0 6.050905862159128 33.61265473531426 12.519523336042843 0 0 0
1127 94 1 0 10.505209401754017 31.3954694438047 14.544864484045478 0 1 1
1128 94 1 0 10.033586894900159 33.13050614480919 14.832119511190447 0 1 1
1809 151 1 0 11.293031752026616 36.450701558127605 11.719089218131653 1 -2 1
1804 151 3 0 12.260594850225148 35.641559059944726 13.913838919058062 1 -2 1
1807 151 1 0 11.22383106306896 35.26976157168121 10.367373965108118 1 -2 1
1802 151 3 0 12.511274484948336 34.75565232646947 11.8012126393945 1 -2 1
1803 151 2 0 12.797292095646501 34.92669732880166 13.096332892416692 1 -2 1
297 25 1 0 12.173794939220919 32.83969125287567 8.837813348194967 -1 -1 1
3106 259 1 0 9.377021356496979 33.33453455260324 10.718617646985729 0 0 0
3102 259 2 0 8.514531502382805 33.25026362597819 10.082169707719029 0 0 0
3108 259 1 0 8.530080911867907 34.16313995985752 9.441251182578544 0 0 0
3107 259 1 0 8.616751973750853 32.506929446414134 9.368985728772435 0 0 0
1806 151 2 0 14.47447939221338 34.444761512437736 14.59141658870235 1 -2 1
929 78 3 0 11.076450964387647 30.6809950111711 12.486447157079942 -2 -1 1
292 25 3 0 14.609289891527713 30.360803564687302 10.510307129424051 -1 -1 1
2268 189 1 0 14.3891547939841 35.64402685476301 8.311026431453895 -1 0 0
368 31 1 0 15.41324461344221 31.802141629721035 12.79122395748567 -2 0 2
3100 259 3 0 8.00194975929593 34.787143072261976 12.25750529008432 0 0 0
296 25 1 0 13.315891224601385 32.809899096495734 10.185917903201881 -1 -1 1
289 25 2 0 12.628341086917043 32.20625611668449 9.607604222366051 -1 -1 1
295 25 1 0 12.030564520373543 31.873158931979077 10.503505452162592 -1 -1 1
936 78 1 0 9.976828949169647 30.057563985992232 10.928106487193398 -2 -1 1
1805 151 3 0 13.869883731105514 34.16146858016599 13.317290865926564 1 -2 1
291 25 2 0 13.903532504481582 30.25104452382745 9.58279305219808 -1 -1 1
1801 151 2 0 11.304472803431052 35.371643731867024 11.386986511864507 1 -2 1
1808 151 1 0 10.447661838479378 34.89271486560488 11.909976426224276 1 -2 1
290 25 3 0 13.189309910618512 31.147235640042204 8.921798949136681 -1 -1 1
930 78 2 0 9.768546102687989 30.4278922474924 11.925195293285968 -2 -1 1
927 78 2 0 11.934979324542095 29.626316071962425 12.44426370518486 -2 -1 1
926 78 3 0 13.013919208731142 30.032929427517193 13.149084455797224 -2 -1 1
935 78 1 0 9.207016265957813 31.39348844099151 11.853057059925012 -2 -1 1
363 31 2 0 16.970021229312493 31.641579908318054 15.066808579926292 -2 0 2
3464 289 1 0 20.950369184043957 35.070651199854595 14.432125544779783 -1 0 1
827 69 1 0 20.90152739880328 32.34882410402688 13.187416760001163 1 -1 1
822 69 2 0 20.238696044674313 31.69347006069936 12.725399818574209 1 -1 1
821 69 3 0 20.925926088117574 30.894898438464963 11.767941035352289 1 -1 1
826 69 1 0 19.797112233426578 31.04535787344885 13.47137083891082 1 -1 1
1812 151 1 0 15.531971326774062 34.18042846693264 14.50985739472736 1 -2 1
819 69 2 0 21.66660268945148 31.566944926296827 10.895431292420568 1 -1 1
2262 189 2 0 15.459920261123472 35.67324220038214 8.392808608809357 -1 0 0
828 69 1 0 19.437591411428546 32.273622336523985 12.138657878372074 1 -1 1
364 31 3 0 16.397587095023802 30.57279737793804 15.115857959269785 -2 0 2
2266 189 1 0 15.815707275359916 35.87377142060184 9.454512522864796 -1 0 0
362 31 3 0 17.03126217430704 32.50900500007183 14.074799501081122 -2 0 2
1306 109 1 0 17.385574787682753 29.26345136574256 10.620051599555335 0 0 0
191 16 1 0 21.042242341887224 33.614730385633806 8.572101183248513 0 1 0
2579 215 1 0 17.033113994235315 30.404384453209776 8.180552936700385 1 -1 1
369 31 1 0 16.682202297099323 32.96470951319546 12.115152968928864 -2 0 2
3622 302 1 0 18.324251742360772 34.42783466707017 9.41721273179477 1 0 0
3618 302 2 0 18.6197914596877 35.29182951171952 10.108038545733152 1 0 0
367 31 1 0 17.073553174233037 31.219455188623524 12.442663364133754 -2 0 2
3624 302 1 0 19.33273799857116 34.92398946344824 10.88522314786633 1 0 0
361 31 2 0 16.479308017238843 32.08820427950841 12.743531337236014 -2 0 2
3617 302 3 0 17.5353218386852 35.86413293057785 10.733017848150089 1 0 0
818 69 3 0 22.16664459558028 30.736501440004428 10.011002323668839 1 -1 1
820 69 3 0 21.79710202813095 32.753586199946774 10.90921627135512 1 -1 1
96 8 1 0 21.95420391537356 35.254810517195246 10.247221400158182 1 1 -1
3623 302 1 0 19.1321953820369 35.94042412624441 9.452378347731603 1 0 0
3616 302 3 0 18.848493573743262 0.7703820189877181 12.467656881096408 1 1 0
3615 302 2 0 17.798184906958458 36.509526005181876 11.927923647311607 1 0 0
1546 129 1 0 24.91379786849258 30.474300085255603 14.015541740467643 1 1 0
1542 129 2 0 23.821331556692883 30.34615209600686 13.849205470060173 1 1 0
1547 129 1 0 23.478335526589778 30.91952861022613 12.921451198922078 1 1 0
3889 325 2 0 27.394218130961786 35.88246711519896 10.722882506547776 1 -1 -2
817 69 2 0 23.29673270356108 31.141717771204622 9.237388342371608 1 -1 1
3895 325 1 0 27.216943801315953 35.23316298634628 9.807372021442188 1 -1 -2
1544 129 1 0 25.92775808895119 29.07048404437971 10.352949683780258 1 1 0
3900 325 1 0 24.93308349817883 33.16898989697906 13.831417853192677 1 -1 -2
824 69 1 0 23.23143933100539 32.0549881951783 8.62177402137538 1 -1 1
94 8 1 0 23.18231572401396 35.644402821761815 9.018062861169991 1 1 -1
339 29 2 0 28.626157390251407 30.203644665843317 9.710279991521283 1 -1 2
345 29 1 0 27.856031968331376 32.82573766036836 8.987033834284878 1 -1 2
3316 277 3 0 28.61625803802089 29.561756129906097 14.945802547315626 -1 1 0
757 64 2 0 29.291945889114842 32.63630915174142 13.633732423036236 -2 -1 0
763 64 1 0 29.137834681662287 32.147942519232636 12.628207804704312 -2 -1 0
95 8 1 0 23.41751505552152 36.01089489075174 10.877919090137203 1 1 -1
764 64 1 0 29.21790132479217 31.8881469240722 14.414371470915682 -2 -1 0
90 8 2 0 22.735609378724508 35.99623060655454 10.003988476271001 1 1 -1
1545 129 1 0 26.190693159634357 30.37111137973603 11.609133178699809 1 1 0
3894 325 2 0 24.139903060797614 33.801037705631295 13.363333201197095 1 -1 -2
3899 325 1 0 23.73162979250514 33.28651721115082 12.54339530530125 1 -1 -2
825 69 1 0 24.168631671706102 30.985645826653762 9.890873145769906 1 -1 1
338 29 3 0 27.670872174309217 30.803095704288527 8.944399134698209 1 -1 2
344 29 1 0 27.1259361643834 32.05763088223625 10.534022204823293 1 -1 2
340 29 3 0 29.267617336716018 30.78187795549094 10.541281393845788 1 -1 2
3892 325 3 0 26.218566891522666 33.73368804018264 11.894916881644324 1 -1 -2
823 69 1 0 23.3415540837134 30.31796926757485 8.498733259260854 1 -1 1
3890 325 3 0 26.211644506947152 36.00625763814172 11.512797594480405 1 -1 -2
765 64 1 0 28.55811015808809 33.49403052752682 13.693828944274914 -2 -1 0
3891 325 2 0 25.756360196352883 34.871240137749474 12.046330777013555 1 -1 -2
337 29 2 0 27.191915547547385 32.054739238172616 9.416412511218736 1 -1 2
3893 325 3 0 24.691232353826877 35.01815864654472 12.82400999083839 1 -1 -2
3898 325 1 0 23.232538524964696 34.04994702855416 13.962637892347944 1 -1 -2
3897 325 1 0 28.163128008659598 35.39626721577946 11.326947012561076 1 -1 -2
343 29 1 0 26.221523050523142 32.13582052612586 8.838969011382723 1 -1 2
393 33 1 0 34.55252477067235 33.049910607333125 12.843058321604914 -2 -1 0
392 33 1 0 35.213209706331845 33.056766991736936 14.544095004347565 -2 -1 0
2605 218 2 0 32.7076708574427 32.12063192445508 10.263825307319697 -1 1 0
385 33 2 0 34.383869569946796 32.74313775828456 13.871525713726177 -2 -1 0
2613 218 1 0 31.948851117274746 32.09492887521832 11.04838302561079 -1 1 0
391 33 1 0 33.431438044015486 33.13492011959604 14.189728564350629 -2 -1 0
760 64 3 0 29.98835592125847 34.552115446554794 11.921770109357215 -2 -1 0
758 64 3 0 30.558828337341982 33.198544925570495 13.645679892488063 -2 -1 0
1175 98 1 0 29.796007948131212 35.876162593361606 15.402111099981418 1 -1 3
3321 277 1 0 30.602024888997335 29.79932910436848 12.870260686286157 -1 1 0
3319 277 1 0 31.38013053380371 30.30478615880595 14.414537804343295 -1 1 0
759 64 2 0 30.769275113313363 34.13670264281501 12.717973685310007 -2 -1 0
766 64 1 0 33.502422553987586 35.89950451620432 12.50130249503049 -2 -1 0
2606 218 3 0 33.77382058435142 31.243657992207478 10.529557366999029 -1 1 0
761 64 3 0 32.071207871698114 34.507709159318374 12.888107893948888 -2 -1 0
386 33 3 0 34.26172862939888 31.30845641524943 14.048504864186896 -2 -1 0
2608 218 3 0 32.69365520399672 29.275899648882678 10.0459900119553 -1 1 0
767 64 1 0 32.78383603974861 35.12633921279665 11.030493056505716 -2 -1 0
2607 218 2 0 33.71875446555389 29.88850636798986 10.334909134210601 -1 1 0
2611 218 1 0 33.19780463994208 33.076025273440514 10.182310684179704 -1 1 0
762 64 2 0 32.59516497804117 35.552887727621425 12.03826920691031 -2 -1 0
2340 195 1 0 30.15450151973145 34.69905218693214 8.98871831615059 -1 0 0
768 64 1 0 31.943989221224705 36.41805491116191 11.940021405157461 -2 -1 0
947 79 1 0 34.15281021467673 35.844310015448315 15.293806099329155 0 0 -1
2612 218 1 0 32.2584504510633 31.731472442611324 9.330652567031189 -1 1 0
2568 214 1 0 1.237945779361277 32.52727148863373 11.64182970533957 -1 0 2
944 79 1 0 3.9048626424088346 1.2228425750129506 15.530468998440755 1 1 -1
939 79 2 0 0.871981783265243 36.47515492273386 15.098555807757927 1 0 -1
776 65 1 0 1.879921090303334 3.2761903565088732 17.68430255347524 0 1 0
780 65 1 0 3.692088003556902 6.431780557431263 21.62533633724428 0 1 0
3708 309 1 0 5.102481259499518 5.748999303647905 16.62481948500935 1 0 0
773 65 3 0 3.041252145146685 6.650207472171459 19.66145985481707 0 1 0
3201 267 1 0 2.0458038702896593 7.641973982001807 17.844425670136843 2 1 -1
3503 292 1 0 2.9674782327061404 1.621731095878141 22.217685669447192 1 1 0
779 65 1 0 1.9502409794877231 6.803540003773841 21.43278172171688 0 1 0
777 65 1 0 2.878259883090667 4.0457175699614725 16.399953700215097 0 1 0
815 68 1 0 6.145453671679132 6.370176795824153 21.55684510531772 0 1 1
774 65 2 0 2.9372521933531353 6.971316039692611 21.04065857628763 0 1 0
307 26 1 0 35.40765758011951 3.364487578221598 19.572778832355247 2 -1 1
810 68 2 0 7.100115882200033 6.714423509069029 21.2347835029203 0 1 1
308 26 1 0 1.2340713751912669 3.5245898868670853 19.787605191042413 3 -1 1
1584 132 1 0 7.984835138431063 2.5798779265412626 17.541483887195255 0 2 -1
775 65 1 0 3.6213928492012974 3.2928566913937702 17.98113202656645 0 1 0
3702 309 2 0 5.388525276976568 6.7105465814314345 16.211777863962336 1 0 0
816 68 1 0 7.542937838207803 6.0928143902695115 20.481101918996934 0 1 1
938 79 3 0 1.9403569595269565 1.158879313395914 15.555881975848843 1 1 -1
3706 309 1 0 6.363082273072057 6.94352594037333 16.5855129773215 1 0 0
770 65 3 0 2.642927487507891 5.212387907084579 18.144336647919392 0 1 0
469 40 2 0 7.418415171399211 2.201764143824728 20.764681220557808 -1 0 -1
772 65 3 0 3.5933492687843986 4.555596139350173 20.17221874592771 0 1 0
470 40 3 0 6.860086294849453 3.482516098539163 21.421190607069807 -1 0 -1
477 40 1 0 8.1957839437568 2.646646404150666 20.14058465238798 -1 0 -1
476 40 1 0 6.629502315110925 1.7385233645862028 20.1809127946367 -1 0 -1
769 65 2 0 2.8143165496696123 3.9358562860509854 17.51893775310458 0 1 0
808 68 3 0 5.7024658645877855 7.495491954418172 19.238255417161742 0 1 1
771 65 2 0 3.168966553018726 5.3901646251327815 19.362828913491303 0 1 0
67 6 1 0 11.616834294434947 0.747700426215447 19.7091939413605 0 0 -1
271 23 1 0 8.864558106395439 5.2651112724577205 17.739940314208727 0 2 -1
265 23 2 0 9.77335988258614 5.759277679572855 17.46031652230624 0 2 -1
1583 132 1 0 8.061498494316186 2.923560566022324 15.651273222434842 0 2 -1
272 23 1 0 10.144841437733259 5.50179158759207 16.46760732298437 0 2 -1
1576 132 3 0 8.762991708152452 0.8126907865381946 18.59429342261279 0 2 -1
68 6 1 0 10.347822664022711 1.8351614245479848 20.245985476056635 0 0 -1
266 23 3 0 9.45382191437194 7.171283757503378 17.45057798093363 0 2 -1
273 23 1 0 10.557870898013862 5.467324608535097 18.238451558828224 0 2 -1
1681 141 2 0 10.841525011678705 5.188195270485201 21.438438436871383 0 1 0
1682 141 3 0 11.52064045810336 6.108098567281035 22.257213931387714 0 1 0
1687 141 1 0 10.77221617395364 4.184306178186103 21.846561685978035 0 1 0
1689 141 1 0 11.3799418818203 5.142050939585401 20.437229289452254 0 1 0
1683 141 2 0 12.710846205597436 6.598367249939166 21.88502274394196 0 1 0
814 68 1 0 7.837592996149962 6.7362260696581755 22.082946516100925 0 1 1
62 6 3 0 11.674554909582463 1.2551180864190226 21.622260655640304 0 0 -1
1750 146 1 0 14.363883556038985 4.791576222992099 17.20880862707568 0 1 -1
1744 146 3 0 13.950658894882311 2.159200787187849 16.126563753593935 0 1 -1
1752 146 1 0 12.861560202542707 5.626769583346635 17.550354307589668 0 1 -1
1751 146 1 0 13.19641796838211 4.931308235663045 15.968924910652685 0 1 -1
1743 146 2 0 13.1531303569657 2.369788441124456 17.000073293473474 0 1 -1
1684 141 3 0 13.413308515986921 6.238162967204801 21.0280856312287 0 1 0
1578 132 2 0 8.533721438305871 2.503915465886251 16.546291227122143 0 2 -1
475 40 1 0 7.82842692947283 1.5555980118957426 21.52230617479881 -1 0 -1
268 23 3 0 11.193814683339713 7.667421621587396 18.833183582323556 0 2 -1
1582 132 1 0 9.42788316292409 3.0458422571414547 16.730588823933612 0 2 -1
1742 146 3 0 12.363396473519106 1.4508416568287237 17.626230039636212 0 1 -1
1577 132 3 0 8.890942522524734 1.1566847345208695 16.334316837757598 0 2 -1
61 6 2 0 11.444273785390516 1.6861416395353335 20.287128348284508 0 0 -1
69 6 1 0 12.06238742879201 2.511985168066079 19.946770956724468 0 0 -1
1746 146 2 0 13.310848632286152 4.805319546948276 17.038068791807262 0 1 -1
1745 146 3 0 12.804511162463001 3.563658344581745 17.500770686509433 0 1 -1
3310 276 1 0 15.156218312241425 4.03390486249495 20.311387482624536 2 1 0
707 59 1 0 19.886587502775313 2.7135038642790508 22.181209962033005 1 0 0
1040 87 1 0 17.110874840368428 6.87242408557628 19.6444638518503 -1 0 0
3311 276 1 0 15.980831828238255 2.690038391535193 21.20451110578879 2 1 0
3306 276 2 0 15.945695096321804 3.237690359306715 20.247606301847565 2 1 0
2882 241 3 0 22.166079455810202 7.207929283467048 20.34197624307153 0 0 -2
1041 87 1 0 15.253218268670269 6.71308515710148 19.173700599141828 -1 0 0
3305 276 3 0 15.769083656553857 2.282941003759675 19.15515259804068 2 1 0
2905 243 2 0 20.494872909953727 3.1332414723826405 17.081370995488797 0 -1 0
1033 87 2 0 16.22687000256369 7.298540292378758 19.06682912566345 -1 0 0
3304 276 3 0 17.610661089689415 0.8718059978266155 19.57001185466538 2 1 0
2913 243 1 0 20.034503993534084 3.162758493817533 18.075988854496522 0 -1 0
704 59 1 0 18.180809617323074 7.568249799870076 23.310686327211585 1 0 0
3303 276 2 0 16.632334636687272 1.2791458445671375 18.9437526975348 2 1 0
3312 276 1 0 16.9060987286333 3.6965454956116894 20.095872581036954 2 1 0
2889 241 1 0 20.155258013005795 6.834259656567126 19.562881216424536 0 0 -2
2908 243 3 0 18.953615433991814 5.274460808675636 17.161422613577447 0 -1 0
2912 243 1 0 21.362338110153658 3.8549546181078505 16.967167250744243 0 -1 0
708 59 1 0 20.26100065459052 3.7084917217395086 20.56725204111455 1 0 0
2881 241 2 0 21.18353051057734 6.721944930328196 19.295697107685903 0 0 -2
2914 243 1 0 17.3427494489454 6.435151640360212 15.849599238373095 0 -1 0
1039 87 1 0 16.62586859539066 7.280746407862795 18.08712809193677 -1 0 0
2906 243 3 0 19.56198527541875 3.407981711033177 16.01360035580674 0 -1 0
701 59 3 0 20.56458346167456 4.668017516875176 22.326668481227305 1 0 0
2907 243 2 0 18.9013464091067 4.569746973395366 16.191781505241167 0 -1 0
2911 243 1 0 20.967234914811854 2.1745546879973485 16.829600745910327 0 -1 0
2887 241 1 0 21.255177492940284 7.236713453351261 18.340537619246017 0 0 -2
699 59 2 0 19.630291321740113 5.5822739835951305 22.10546009536027 1 0 0
702 59 2 0 20.52379074571845 3.454068857040524 21.618880759075893 1 0 0
700 59 3 0 18.71120904815494 5.399169742216932 21.320588089327604 1 0 0
706 59 1 0 21.583999771347735 3.1789491463031485 21.590084350637113 1 0 0
2909 243 3 0 18.096361649160475 4.632018089216689 15.13822222262508 0 -1 0
1902 159 2 0 26.883066505612643 2.0575024514153375 18.57100709958464 0 1 1
1908 159 1 0 25.79702632989104 1.8942734957594871 18.42743228767881 0 1 1
1900 159 3 0 29.421178284989008 1.5408541490391559 19.70088761842228 0 1 1
682 57 1 0 22.079503935348708 36.40664825214138 19.345014615044732 0 -1 1
885 74 1 0 25.170418934264983 1.2849331979661658 21.91129253375504 -1 1 0
1901 159 3 0 27.46567787781805 0.7642126016632432 18.88887893172888 0 1 1
683 57 1 0 23.137969611814608 1.879221995410277 19.020400303204546 0 0 1
1880 157 1 0 29.247630116945274 3.926316244386052 22.60316953252853 1 0 -1
1608 134 1 0 28.78204669092821 5.190650543328438 15.524128586548366 1 0 -1
1598 134 3 0 24.94698929727425 5.0211763481431575 16.155890498925437 1 0 -1
878 74 3 0 24.355023663315283 3.137410270993797 21.29361996249444 -1 1 0
620 52 1 0 26.28411250591899 36.252260035808895 16.627454707167587 0 0 0
1604 134 1 0 22.9439439208798 5.576338653962337 16.302705444050734 1 0 -1
1597 134 2 0 23.891203159217255 6.0115482077239655 15.922370340227262 1 0 -1
1906 159 1 0 26.87397276451066 2.9031733144769922 19.367411257441415 0 1 1
1599 134 2 0 26.2223685814406 5.396385927627838 15.824369113417204 1 0 -1
3820 319 3 0 28.901202196131145 7.430203337693463 19.251265195913117 -1 2 -2
1600 134 3 0 26.521929704876516 6.447804102506146 15.351133499732107 1 0 -1
2888 241 1 0 21.517791511872982 5.696513134517271 19.165886450180082 0 0 -2
1605 134 1 0 24.134027981790467 6.893574743264985 16.575813146596136 1 0 -1
1601 134 3 0 27.010004128052653 4.306137241784901 16.045924050859583 1 0 -1
1602 134 2 0 28.357804059877626 4.611374872352398 16.365668990281343 1 0 -1
888 74 1 0 26.58089947776441 6.287766633187369 21.587104829894102 -1 1 0
881 74 3 0 25.3151799305492 5.001265804941797 20.486658991009584 -1 1 0
880 74 3 0 26.39891695866872 3.832582778652218 22.10296341360982 -1 1 0
1907 159 1 0 27.313105708528077 2.4769143027593343 17.616869736885366 0 1 1
3823 319 1 0 30.191865863881446 7.83670836751018 22.603789197369025 -1 2 -2
1607 134 1 0 28.882314980330843 3.6528143567888764 16.512849655761652 1 0 -1
1606 134 1 0 28.504388300193792 5.217357283739942 17.31636351856401 1 0 -1
884 74 1 0 23.43487481662356 1.4618213354057459 21.992236920336477 -1 1 0
882 74 2 0 26.401061636992377 5.923306502209721 20.534034787770835 -1 1 0
886 74 1 0 27.311552824924153 5.573449532021323 20.087564188030157 -1 1 0
877 74 2 0 24.36733606398021 1.9829915080390612 22.131122818367036 -1 1 0
887 74 1 0 26.120569580616863 6.813853045909352 19.988866569295958 -1 1 0
879 74 2 0 25.481433623445714 3.950731958892603 21.34734955697115 -1 1 0
3819 319 2 0 29.9013032064827 8.057432239493753 19.51496439102671 -1 2 -2
1169 98 3 0 31.190493279839714 1.21206215641781 16.18473654970161 1 0 3
1881 157 1 0 29.48525529507905 5.08351217264811 21.211630130221742 1 0 -1
302 26 3 0 36.07896555014678 5.078810829092357 20.424690560523572 2 -1 1
303 26 2 0 34.87339555340222 5.499194308750383 20.700812008255973 2 -1 1
376 32 3 0 33.33330980807779 6.686027762035822 15.652052759019428 0 1 -1
305 26 3 0 34.830780927975376 6.7688935176447025 20.940058519568403 2 -1 1
312 26 1 0 33.207989387076324 7.280078966288842 19.75180783708835 2 -1 1
1171 98 1 0 33.54872681810707 3.082825847588019 18.754884402984686 1 0 3
1172 98 1 0 32.06626194555489 4.122484459949076 19.024738667997696 1 0 3
375 32 2 0 34.41959444199275 6.80613116707054 15.187914948575896 0 1 -1
3822 319 2 0 30.819382828068008 7.537940177692109 17.394512111121305 -1 2 -2
2844 237 1 0 32.15954187291718 1.144425170016411 22.523295983814236 1 1 1
1165 98 2 0 32.44731385879541 3.0381330829335673 18.91356377475825 1 0 3
1166 98 3 0 31.846190615928812 2.6902045282859737 17.677689219447693 1 0 3
1873 157 2 0 29.916056487226598 4.44021206224072 21.928656131881258 1 0 -1
1173 98 1 0 32.23441150420459 2.3451694240283842 19.756384291929436 1 0 3
3827 319 1 0 29.839296736084503 7.6619730940955115 16.930325420143134 -1 2 -2
309 26 1 0 36.08715175257065 3.1601368901942966 21.19043617461307 2 -1 1
1167 98 2 0 31.763025100549672 1.3660484761440383 17.39541053841895 1 0 3
3826 319 1 0 30.98774651350371 6.4085478102151665 17.5117327529393 -1 2 -2
306 26 2 0 33.544473356632594 7.453819564243968 20.7389973396638 2 -1 1
310 26 1 0 32.85414547727465 7.123342379158944 21.536479305881482 2 -1 1
2842 237 1 0 33.904162226354316 1.3118272061332745 22.761883021464953 1 1 1
941 79 3 0 35.75759654447574 1.146205812771306 15.447310674530796 0 1 -1
379 32 1 0 35.69536300823447 6.097996929906003 17.688497807421363 0 1 -1
304 26 3 0 33.930206203481006 4.732085397168708 20.769809276012747 2 -1 1
301 26 2 0 36.16730199584603 3.6564523784626526 20.262606268859585 2 -1 1
3821 319 3 0 30.916998846135574 8.306433250591153 18.655970973537148 -1 2 -2
380 32 1 0 34.5269569516141 4.955771351565721 16.84653374930768 0 1 -1
373 32 2 0 35.49481386559277 5.454065293355619 16.817083184955926 0 1 -1
948 79 1 0 33.88637080077726 1.6774813524397931 15.145450714960482 0 1 -1
381 32 1 0 36.354160319008294 4.700699403973297 16.71256323332479 0 1 -1
374 32 3 0 35.56438835018786 6.237523414329391 15.546712076826273 0 1 -1
2024 169 1 0 1.1465980856909024 10.245566737231117 15.490626779882271 -1 -1 0
1430 120 3 0 3.6154186228100698 10.629819272186385 21.688994404807392 -1 0 0
3199 267 1 0 0.8920416556928217 8.168471080039623 16.64772351782579 2 1 -1
3193 267 2 0 1.579838166209132 8.545437665417063 17.35366528236483 2 1 -1
778 65 1 0 3.124725624370251 8.091741601058303 21.04589010319185 0 1 0
3200 267 1 0 2.4243921686734606 9.024640964101366 16.79656105353381 2 1 -1
3036 253 1 0 4.54367545858403 14.120482434734816 15.626747702498545 0 0 1
3034 253 1 0 5.156838204829424 12.382688196747267 15.726433791476731 0 0 1
3026 253 3 0 3.3440595117615204 13.72246323111752 19.219325062152706 0 0 1
807 68 2 0 6.367630030535197 8.30499607242499 19.774964393439554 0 1 1
3027 253 2 0 3.200391143400512 13.936093313898382 17.873141789687434 0 0 1
3194 267 3 0 1.1170896935896084 9.517650893153288 18.2936469593323 2 1 -1
812 68 1 0 5.985380555713872 11.028038542979258 18.089009009132667 0 1 1
1432 120 3 0 3.9511957617457774 12.89272554689399 22.07791021613098 -1 0 0
3028 253 3 0 2.48142086342669 14.797607862960426 17.3293240020149 0 0 1
3033 253 1 0 2.7288675640528304 14.319485443523766 21.060810754173744 0 0 1
3029 253 3 0 3.986253616801852 13.042331877355306 17.193076434314232 0 0 1
806 68 3 0 6.5840181146641354 9.571837651096171 19.39124024466106 0 1 1
3025 253 2 0 2.484011161585269 14.581757660105872 20.03892117551914 0 0 1
3030 253 2 0 4.2675927310396915 13.060859888227531 15.832717672329165 0 0 1
3032 253 1 0 1.4471237316241667 14.367400845200244 19.783440036273106 0 0 1
8 1 1 0 8.736646168245448 10.849545149706628 15.998880332642493 1 2 -1
3707 309 1 0 4.696158599346306 7.493236137068182 16.541281328709868 1 0 0
809 68 3 0 7.145360598780126 8.066452379226245 20.822648819481383 0 1 1
7 1 1 0 7.080592476407092 11.696933425613164 16.084623277864868 1 2 -1
1435 120 1 0 3.563252595510517 11.558136315230758 19.792540546751642 -1 0 0
874 73 1 0 6.397594673239632 14.097270489292567 20.07811843894262 1 0 0
869 73 3 0 7.828097029533292 13.878513830079555 18.558442720459013 1 0 0
875 73 1 0 6.534948698428068 12.40525510831628 19.45664791653281 1 0 0
870 73 2 0 7.066677106831813 13.326816985677398 19.66710260076967 1 0 0
1437 120 1 0 2.0554016228279584 10.934139278256406 20.388687048131203 -1 0 0
3035 253 1 0 3.413986224679824 12.706721562168234 15.1765647559799 0 0 1
876 73 1 0 7.726237633900581 13.056064413693518 20.458277422618444 1 0 0
1436 120 1 0 3.2727738983926105 9.812688874397503 19.789691194149526 -1 0 0
811 68 1 0 5.023936406122813 9.443101590403053 17.95050820379771 0 1 1
1429 120 2 0 3.0930592228560996 10.74886994637839 20.356558810834702 -1 0 0
813 68 1 0 6.821500122250659 9.511921885848656 17.3819800028335 0 1 1
805 68 2 0 6.0433262074731395 9.893692651930232 18.048780689078765 0 1 1
1692 141 1 0 14.995190130940896 7.553795602196645 22.146362006550326 0 1 0
3524 294 1 0 13.301440209197624 13.377050178677647 15.992486841084576 0 0 0
3517 294 2 0 12.494725914368146 12.765638270894465 15.579986850436505 0 0 0
9 1 1 0 8.614260575679088 12.687782830596307 16.220680048560567 1 2 -1
1 1 2 0 8.136072967164315 11.806740221903555 15.800272840518186 1 2 -1
3239 270 1 0 14.569899172176026 13.107519997100336 21.007310827158676 -1 0 0
3238 270 1 0 13.327558294927103 14.156183598898474 20.57215365834084 -1 0 0
2472 206 1 0 11.448028053220154 12.619593685614632 21.05775160789117 0 1 0
3234 270 2 0 14.286723931061985 13.803852337824154 20.2293900332511 -1 0 0
3230 270 3 0 13.992958576511414 11.225724490826178 17.942233137988687 -1 0 0
3525 294 1 0 11.998951084903098 12.291713223052591 16.41076445421029 0 0 0
3235 270 1 0 13.746492992383136 9.759232186431094 16.616275630098524 -1 0 0
1690 141 1 0 14.089183009808986 8.940211634292494 21.390594335981294 0 1 0
267 23 2 0 10.184701862724198 7.957273548089191 18.26970674406028 0 2 -1
3233 270 3 0 14.263365790512367 13.120891506162636 19.003819299556643 -1 0 0
867 73 2 0 8.846307567870326 14.735386907590438 18.797047304766323 1 0 0
3231 270 2 0 13.444120707649944 12.119639899821797 18.78514587415045 -1 0 0
866 73 3 0 9.624561038217967 14.589729806384593 17.789709798482942 1 0 0
2466 206 2 0 10.836896212268698 13.36097226760845 21.674817727093373 0 1 0
3240 270 1 0 15.086539223024197 14.625921022576104 20.13759767891857 -1 0 0
2470 206 1 0 10.607068652311945 14.166190985557634 20.992720761714963 0 1 0
274 23 1 0 9.333819766816807 10.00998654101817 20.134634632599276 0 2 -1
269 23 3 0 9.610383184517667 9.196358711411788 18.184225885085837 0 2 -1
2465 206 3 0 9.512236053588941 12.94598854761804 22.132785419587595 0 1 0
270 23 2 0 9.989964459738095 10.131551689010074 19.314234077719245 0 2 -1
276 23 1 0 9.990434519523008 11.037602057730842 18.779091060849158 0 2 -1
275 23 1 0 11.04491618337586 9.947254975397751 19.670908173369728 0 2 -1
3229 270 2 0 13.410659073190606 9.95216126676103 17.636151511592054 -1 0 0
3237 270 1 0 12.327837941723612 9.915111015617867 17.87661812827609 -1 0 0
3232 270 3 0 12.296860395165671 12.166251310489061 19.187670603015487 -1 0 0
3236 270 1 0 13.89451305517285 9.216474048429143 18.263435858040467 -1 0 0
3716 310 1 0 18.735332686880497 14.270313440329861 22.201139574227266 -1 0 2
3753 313 1 0 20.466634045097038 14.111027140642433 16.28907777835525 -1 1 1
3745 313 2 0 19.5968197556266 13.458423066358172 16.37276924023525 -1 1 1
3752 313 1 0 19.727252558014513 12.384078475989488 16.18634296773238 -1 1 1
3748 313 3 0 17.419755100924245 12.218316128278278 15.542946250081165 -1 1 1
3719 310 1 0 21.618920716912942 10.11991299264261 19.636972738295118 -1 0 2
3718 310 1 0 21.31764069689182 10.73473587915594 18.061097174763493 -1 0 2
3714 310 2 0 20.985977826205126 10.739931281004328 19.044893656682422 -1 0 2
703 59 1 0 18.80240120688379 7.774241741071752 21.527168008725713 1 0 0
3876 323 1 0 17.156110219094057 9.944307496979075 14.248072130923084 -1 -1 -2
3746 313 3 0 18.595973345481536 14.07028369251447 15.444313790302584 -1 1 1
3747 313 2 0 17.481569784828142 13.369577362945218 15.243396300491735 -1 1 1
3751 313 1 0 19.208026091861374 13.526650988010754 17.41933283267382 -1 1 1
3710 310 3 0 20.359549715158252 13.511213984290954 21.108151180225175 -1 0 2
3712 310 3 0 20.148305841157235 11.337694999676158 21.579038519623698 -1 0 2
3711 310 2 0 20.502916041167285 12.240867417683953 20.83683624293552 -1 0 2
3874 323 1 0 16.457241072541105 8.960830813799001 15.53253761876974 -1 -1 -2
1034 87 3 0 15.835257960661092 8.651694618711302 19.530584151831867 -1 0 0
2074 173 1 0 20.658005518239786 8.83378822380509 16.024155126223004 -1 1 0
2070 173 2 0 19.591449666836983 8.910546871979912 15.892700655149216 -1 1 0
2076 173 1 0 19.021889225964863 8.067258326219552 16.352054528115605 -1 1 0
1037 87 3 0 16.303671085325067 10.538699532465651 20.440258743095658 -1 0 0
1043 87 1 0 18.1487705920768 11.3407232279492 20.945034593549785 -1 0 0
3720 310 1 0 19.922670223244072 10.444792881724382 19.124231322672596 -1 0 2
1036 87 3 0 17.913156858749435 9.560251720295824 19.289557167059243 -1 0 0
1042 87 1 0 16.655586861606366 12.174074305041431 21.55088942963353 -1 0 0
1044 87 1 0 17.243817892396514 12.31489313556239 19.855088350534118 -1 0 0
1035 87 2 0 16.754831328397913 9.595985149961242 19.660445135221728 -1 0 0
1038 87 2 0 17.115491386266367 11.644948691673683 20.741245622859427 -1 0 0
2075 173 1 0 19.29278904260484 9.948760650096231 16.165496261077205 -1 1 0
3713 310 3 0 21.076226349217023 12.06836985149951 19.613536971668395 -1 0 2
2992 250 3 0 23.92932021815688 14.417571220415493 18.595334460593637 1 -2 2
2991 250 2 0 23.642585722754095 13.759937390217669 17.635148649616756 1 -2 2
2995 250 1 0 23.785650014568468 12.077106595579872 19.554899219518973 1 -2 2
3021 252 1 0 27.600156873092725 9.147495156383222 16.301465985504695 0 1 -1
3288 274 1 0 28.41762680368672 11.8329718382753 20.05468125383969 0 1 0
2892 241 1 0 25.584074901322765 9.349051691393806 20.43661018582487 0 0 -2
3287 274 1 0 30.04130522535091 11.458828072412546 20.22830892320674 0 1 0
44 4 1 0 22.779968582303354 14.189804525226892 22.042730591047423 2 -1 1
2884 241 3 0 23.687617678463262 8.133695166323065 18.904982651597265 0 0 -2
3817 319 2 0 29.53708215408014 8.393300007793277 21.845079346639682 -1 2 -2
3825 319 1 0 28.561468571624815 7.9241145080933215 21.766692068682875 -1 2 -2
2990 250 3 0 23.864001371065108 12.423193277090938 17.420736222420555 1 -2 2
2996 250 1 0 24.490594503248822 10.75811009986578 18.513092699289434 1 -2 2
3024 252 1 0 25.99237691748471 13.826858535564352 16.594722075899753 0 1 -1
3022 252 1 0 27.760562338059696 13.974412808434257 16.644591870362124 0 1 -1
3018 252 2 0 26.869950266573678 13.916796146674816 16.025149499779864 0 1 -1
2997 250 1 0 25.52809535417888 12.150442291763548 18.87827566321815 1 -2 2
2989 250 2 0 24.467405803314964 11.861430010949876 18.68207036079488 1 -2 2
3282 274 2 0 29.311394195983354 11.65328929033943 19.514673542500404 0 1 0
2993 250 3 0 23.08861949548625 14.276986325678498 16.551695963979707 1 -2 2
2885 241 3 0 23.649160090635593 8.5611134359858 21.1013310012791 0 0 -2
2883 241 2 0 23.165118320110075 8.02339763733206 19.98777665703205 0 0 -2
3279 274 2 0 29.563933866871512 13.943953452082711 19.093350352947272 0 1 0
3281 274 3 0 29.707533299577104 12.70988059121005 18.64996099313229 0 1 0
2886 241 2 0 25.014428026006534 9.010203345874132 21.29995340808639 0 0 -2
3016 252 3 0 27.346579245212457 11.314537645701973 17.005917184837827 0 1 -1
2891 241 1 0 25.571845637026676 8.311264614753295 21.873682615635918 0 0 -2
3013 252 2 0 28.052171459601105 9.39651055623142 15.35335855999956 0 1 -1
3286 274 1 0 29.172152749714154 10.711141745216398 18.90013607152611 0 1 0
3020 252 1 0 29.10947361015047 9.448320117225743 15.4979885041389 0 1 -1
3017 252 3 0 26.981848947898587 12.723523289840543 15.217554361522401 0 1 -1
3015 252 2 0 27.276085663141266 11.595815416117555 15.807387673627522 0 1 -1
2890 241 1 0 24.92864847557435 9.917850973982251 21.89135895373205 0 0 -2
1449 121 1 0 24.57835567709757 10.593536989256554 15.767246984369077 0 0 0
3280 274 3 0 29.203657798030655 14.16426942247762 20.209383068893832 0 1 0
1448 121 1 0 24.739365381773467 9.109530125090266 14.83939216038356 0 0 0
3278 274 3 0 29.731376900225072 14.81513607850059 18.080531707842226 0 1 0
104 9 1 0 0.8564037366690159 12.038022308572513 22.33348677510514 -2 0 1
1593 133 1 0 31.43252368920727 10.631947835354461 15.903228611662046 0 0 -1
2960 247 1 0 32.501404911599124 14.03158896617603 20.731838145931423 0 1 -1
3195 267 2 0 35.78620669705979 9.704589615986999 18.490365046102603 1 1 -1
1591 133 1 0 30.448230184562277 12.012625244850547 16.027040706377075 0 0 -1
1595 133 1 0 36.00282674640883 13.663803557063568 15.97599230746369 0 0 -1
3202 267 1 0 34.42932434512384 11.97821672743679 20.355691981096765 1 1 -1
3196 267 3 0 34.87169042520591 9.04083689767603 17.99944183417818 1 1 -1
3828 319 1 0 31.602890017672422 7.917906209092134 16.7450278929967 -1 2 -2
3197 267 3 0 35.63092601962503 10.685392581216602 19.38376134180136 1 1 -1
1586 133 3 0 32.40105706602069 12.415580262157588 16.61238496753898 0 0 -1
3203 267 1 0 34.0031280291719 11.736419149554154 18.651540996763302 1 1 -1
311 26 1 0 33.72734932639272 8.50868080342658 21.10433202793844 2 -1 1
1594 133 1 0 35.867165010848325 14.68030909512521 17.54070032278223 0 0 -1
1587 133 2 0 33.32000200939113 13.30550661103866 16.080183061533457 0 0 -1
1585 133 2 0 31.467225697294072 11.748419534758028 15.757860542603156 0 0 -1
3204 267 1 0 33.611702452165375 10.421835922544949 19.901789006969658 1 1 -1
1590 133 2 0 35.36532712601533 14.337843396021102 16.60770439423668 0 0 -1
1592 133 1 0 31.718933892096835 11.973184832607192 14.74575270962338 0 0 -1
2084 174 1 0 32.022303608776895 9.576010738844749 22.110624585054666 -2 -1 0
1589 133 3 0 34.24598960230242 13.521789058316198 17.028607794167318 0 0 -1
1596 133 1 0 35.046387276678 15.211589470085485 15.984652487422704 0 0 -1
3198 267 2 0 34.290521303375655 11.235101749328395 19.609219591416895 1 1 -1
2085 174 1 0 33.83111458515426 9.969481997978844 22.337307786260983 -2 -1 0
2953 247 2 0 32.71037048722937 14.721368329909485 19.902755807272058 0 1 -1
2959 247 1 0 32.55591764920971 14.229851964953692 18.888206695841816 0 1 -1
3818 319 3 0 30.192088392967314 8.689091163171046 20.64382120350376 -1 2 -2
1980 165 1 0 0.96532645070074 20.582524389348613 20.522000046230488 1 -2 -1
2962 247 1 0 0.7362011867721716 17.31123696886951 21.94648225368545 1 1 -1
2224 186 3 0 6.852217690421798 17.762450617489446 22.33890653770831 1 0 -1
2228 186 1 0 6.41474035404469 20.22657335095397 22.24813791819346 1 0 -1
858 72 2 0 6.279751316116259 17.05346625912902 19.158996803529416 0 -1 -2
2137 179 2 0 3.549342440185799 18.438884927519442 16.680857005144432 1 0 -1
2139 179 2 0 5.644568758769481 19.23398916780327 16.100695779905852 1 0 -1
2143 179 1 0 3.304038901321221 18.892611644939016 15.724328937884527 1 0 -1
3031 253 1 0 2.65808737221138 15.635961881960627 19.891528723832437 0 0 1
2138 179 3 0 4.825833669484193 18.987486473826213 17.07562484044658 1 0 -1
854 72 3 0 6.476204325402023 15.891057852915571 15.858783923460853 0 -1 -2
1494 125 2 0 3.866577243428026 21.35443153338859 18.932558979018467 -1 0 1
2141 179 3 0 6.708016032979914 19.892276824467526 16.552030585202605 1 0 -1
1491 125 2 0 3.3690532120904875 20.20880236630412 21.021262325262313 -1 0 1
857 72 3 0 6.186168910946102 16.422630255323078 17.860485476377264 0 -1 -2
1500 125 1 0 4.830866437727311 20.95558136909001 18.635853912119973 -1 0 1
862 72 1 0 7.261189357545524 17.520931776949297 19.388477501568964 0 -1 -2
2142 179 2 0 7.549866994429443 20.561406697068 15.630758766263428 1 0 -1
2144 179 1 0 3.589412380001494 17.358291092481394 16.68910979939216 1 0 -1
2148 179 1 0 8.54136414024342 20.137981649634273 15.655669632875917 1 0 -1
2145 179 1 0 2.9315728482084276 18.811875313241035 17.494492682747932 1 0 -1
2140 179 3 0 5.503866095677232 18.949384272488825 14.925783302403683 1 0 -1
1649 138 3 0 7.159704165158112 21.87168367672344 20.446464410415526 1 -2 0
863 72 1 0 5.538768379806343 17.839796875340664 19.21327365694328 0 -1 -2
864 72 1 0 6.14908311678174 16.301799214237896 19.961239481241993 0 -1 -2
1492 125 3 0 3.2080217355684053 19.107887387628256 20.499828338879272 -1 0 1
1498 125 1 0 3.0178554021192543 20.852628779385466 18.569977229846327 -1 0 1
856 72 3 0 7.823838854571408 17.490647369910853 16.800452928869586 0 -1 -2
1493 125 3 0 3.7569027468189153 21.28697230463598 20.428340396030134 -1 0 1
855 72 2 0 6.8883826319895975 16.703243188944455 16.83159084352675 0 -1 -2
1976 165 1 0 1.1168126215205456 22.82249945120026 15.756891677387118 1 -2 -1
1499 125 1 0 3.9060964254113837 22.433296457890687 18.82151128038523 -1 0 1
2231 186 1 0 9.628368950127115 15.824893353884878 22.60319045503705 1 0 -1
404 34 1 0 12.795626978272178 22.43534972477382 19.819615381113167 1 1 -2
970 81 1 0 12.17362135387577 16.71037943175837 21.793380525989008 0 -1 1
972 81 1 0 11.58380670318147 16.83424670919936 20.035150769185037 0 -1 1
2147 179 1 0 7.587184955842928 21.631704666198882 15.879146583242234 1 0 -1
971 81 1 0 10.596338534106 17.56270867228725 21.308801529040906 0 -1 1
868 73 3 0 8.992229783074698 15.406642121917205 19.782394967675206 1 0 0
3948 329 1 0 13.734932969865113 14.973755264546043 18.017623336804633 2 -1 0
966 81 2 0 11.638127041702381 17.31999409730908 21.03466040866908 0 -1 1
3942 329 2 0 14.33970055393945 15.64575156294183 17.37569288146158 2 -1 0
3167 264 1 0 13.237484755615233 22.191942202260204 16.287543248655695 1 0 2
3947 329 1 0 14.373396011388245 16.61992232684997 17.818096909624437 2 -1 0
1652 138 1 0 9.59750671521959 18.708806318749307 19.45013173214123 1 -2 0
1645 138 2 0 9.378117783599391 19.706549806446983 18.97454422110586 1 -2 0
872 73 1 0 11.513080671976756 15.187787075698388 18.410386779158983 1 0 0
3941 329 3 0 13.78766072378752 15.757626440520925 16.054208908243165 2 -1 0
3165 264 1 0 9.611961173628531 17.738639840168332 15.306090753353214 1 0 2
3166 264 1 0 13.281190745680046 20.59607513445022 16.948777295808757 1 0 2
3162 264 2 0 12.631752998977479 21.320325940608146 16.49362115381774 1 0 2
3161 264 3 0 12.045428760560727 20.719373002716736 15.343657032117669 1 0 2
873 73 1 0 11.213936185242092 15.311471379258023 16.655394078388603 1 0 0
1647 138 2 0 8.02319625452583 21.499107821689282 19.532816464807645 1 -2 0
963 81 2 0 13.604278569978348 18.47643754574611 20.562972994018406 0 -1 1
965 81 3 0 12.260204371832309 18.628680271707882 20.709182480783873 0 -1 1
3160 264 3 0 11.134534320342711 19.141727344911803 16.71976576271475 1 0 2
3159 264 2 0 11.406090611716492 19.549242290856448 15.616340634782777 1 0 2
1646 138 3 0 8.254334136934618 20.24073453853469 19.69107058046546 1 -2 0
962 81 3 0 14.131374179745286 19.647668542130255 20.237114141248387 0 -1 1
3940 329 3 0 14.900708608428262 17.714407277628215 15.5991662996316 2 -1 0
871 73 1 0 10.509380359779762 16.574448592076802 17.66617448556121 1 0 0
3939 329 2 0 14.270279067891375 16.786263071152682 15.225346958926965 2 -1 0
964 81 3 0 14.270891457305137 17.431574290251227 20.62414002552145 0 -1 1
865 73 2 0 10.779292423252956 15.484390670025803 17.586767853062778 1 0 0
1653 138 1 0 9.070941445216445 19.755122972934654 17.93040404092172 1 -2 0
3168 264 1 0 11.775142683221178 21.58321879076198 17.168911139697663 1 0 2
1648 138 3 0 8.359639292666385 22.12085370328031 18.53725373437264 1 -2 0
3946 329 1 0 15.428388040693504 15.31103069507273 17.365398555285523 2 -1 0
1651 138 1 0 10.386319954484067 20.164390899601333 19.185114292075436 1 -2 0
3000 250 1 0 22.417699983296448 15.830190061925968 17.780162107780612 1 -2 2
852 71 1 0 16.96208047468198 18.56451743573133 17.01656504932875 -2 2 -1
844 71 3 0 19.671264619363708 18.3239431648698 16.531224085153966 -2 2 -1
1480 124 3 0 21.9828143084463 20.106921102816564 15.303234528572697 1 -2 1
841 71 2 0 21.507492093871495 19.067910926915562 18.300350363624858 -2 2 -1
333 28 1 0 19.971361770787812 18.81813224631259 22.45068258819685 0 0 2
845 71 3 0 18.34082476161912 20.076573852004767 17.100873552698463 -2 2 -1
961 81 2 0 15.574270195702379 19.572549411246698 20.449289633217184 0 -1 1
419 35 1 0 14.50139549039284 22.480438564552344 22.43743876801375 -2 -1 -1
968 81 1 0 16.026404577928208 18.81078430128355 19.85211135555094 0 -1 1
967 81 1 0 15.647869382389926 19.425577199068943 21.50362911804244 0 -1 1
969 81 1 0 16.04321830294261 20.55611576439908 20.242468177366817 0 -1 1
1488 124 1 0 20.60870201223365 22.258419495830072 16.24251645481515 1 -2 1
850 71 1 0 16.31678207744885 20.310640962766247 16.873717681890074 -2 2 -1
846 71 2 0 17.138784212545303 19.5681377198062 16.571128520159764 -2 2 -1
849 71 1 0 21.2625470610208 17.986991407864 18.273637367227657 -2 2 -1
327 28 2 0 20.184249586091283 21.417495643297357 20.795351025016902 0 0 2
843 71 2 0 19.442096415041046 19.344055145565203 17.151470970557106 -2 2 -1
325 28 2 0 20.492433934222113 19.21803141706533 21.581557128839666 0 0 2
326 28 3 0 19.609962503333524 20.225138008846493 21.03601866984067 0 0 2
331 28 1 0 20.49366890640232 18.295247148493935 20.98075858777721 0 0 2
842 71 3 0 20.30412764174593 19.846346331125865 18.053756124846966 -2 2 -1
332 28 1 0 21.495933721474486 19.590165958756227 21.75398308644781 0 0 2
328 28 3 0 21.375567018452102 21.639695501955316 20.83852012341097 0 0 2
848 71 1 0 21.917420651757503 19.320323381658667 19.332821188529373 -2 2 -1
851 71 1 0 17.1290122485365 19.526984896068765 15.492554648539372 -2 2 -1
2931 245 2 0 26.54106486166867 18.03582549770604 15.151585234679212 -1 1 1
496 42 3 0 27.46485141474751 21.59486767498994 17.188082525598137 1 0 -2
3610 301 1 0 25.869374036487407 20.912699553301035 20.11420246994712 -1 0 0
3284 274 1 0 29.07069167038768 16.807474958948237 17.748504405292117 0 1 0
504 42 1 0 29.357002005296785 19.468193280128887 17.118985346558993 1 0 -2
3612 301 1 0 27.431652659265122 21.61483836506548 19.8509083890737 -1 0 0
3605 301 3 0 27.52566017533567 19.59376586841123 20.27259666654508 -1 0 0
3606 301 2 0 26.903031245866266 20.91827763719032 20.468021652040253 -1 0 0
3603 301 2 0 26.778693348719095 18.590069852503536 20.73148296262351 -1 0 0
3611 301 1 0 27.12284211046381 21.175410557530892 21.478093223218053 -1 0 0
2935 245 1 0 26.48370579857381 19.661703583622007 17.34825605368136 -1 1 1
2929 245 2 0 25.63450132215361 19.04042395209581 17.13248039033025 -1 1 1
2930 245 3 0 25.642263806018793 18.891640272266425 15.70095123412345 -1 1 1
2937 245 1 0 25.85832741569459 18.081465202207397 17.662921426726808 -1 1 1
2936 245 1 0 24.661491192810484 19.547179856059095 17.4354360587107 -1 1 1
3381 282 1 0 23.94922572008617 22.715379644905358 19.33388983120814 -1 1 2
3609 301 1 0 25.480584227668558 16.376768071397652 20.514766334983307 -1 0 0
3601 301 2 0 26.511562891300656 16.18288462717706 20.50898445221312 -1 0 0
2994 250 2 0 22.757756840090835 15.70088746809677 16.737877758339756 1 -2 2
3607 301 1 0 26.64646258742086 15.395660050604898 19.77558743389297 -1 0 0
3608 301 1 0 26.808178757613497 15.657576101987669 21.444038196933967 -1 0 0
3604 301 3 0 25.79116634390076 18.738521408017714 21.410916019267415 -1 0 0
3602 301 3 0 27.29772356810529 17.387766250009005 20.19192126003685 -1 0 0
495 42 2 0 28.518923573348427 22.046150881178885 17.47882259757082 1 0 -2
847 71 1 0 22.255625623796394 19.31297206259578 17.523901797438906 -2 2 -1
2999 250 1 0 21.995509169111372 15.964267965223774 15.981818658725512 1 -2 2
2932 245 3 0 27.406899742632838 17.445584568326446 15.79219596435242 -1 1 1
2998 250 1 0 23.69103725387096 16.36829523697002 16.609500414152336 1 -2 2
3277 274 2 0 29.715178993167005 16.234353522953626 18.47564502861657 0 1 0
3283 274 1 0 30.729651219836647 16.621388847747156 18.353301336291782 0 1 0
502 42 1 0 30.81162752735359 19.766082759896015 18.12001099352808 1 0 -2
2744 229 1 0 29.693227742674278 17.5519824582547 21.36722816244614 -1 0 0
1979 165 1 0 35.093451347346345 20.53380391525756 20.39665633055974 0 -2 -1
2956 247 3 0 34.13002305089218 16.227646629949845 21.795443724816366 0 1 -1
503 42 1 0 29.076139213470128 19.55109843520022 18.81418855172035 1 0 -2
1978 165 1 0 35.86533806817265 21.79110870438172 21.4963340845527 0 -2 -1
498 42 2 0 29.691541523951607 19.96526683582279 18.017967045037206 1 0 -2
3271 273 1 0 34.91268977651746 17.61978091658168 18.099097323449552 0 2 1
3265 273 2 0 34.52059429919394 17.825459416359312 17.125211629927982 0 2 1
2964 247 1 0 35.41840556603654 18.272198483082075 21.09607552216415 0 1 -1
1974 165 2 0 35.89125063095837 21.20104377679669 20.58553689547431 0 -2 -1
1972 165 3 0 36.33503418437427 20.77320781427472 17.830619585137875 0 -2 -1
1971 165 2 0 36.11174771411512 21.873694176726627 18.274566582544782 0 -2 -1
3269 273 3 0 31.724795374360923 16.289885095238915 15.803381337828508 0 2 1
3273 273 1 0 34.163411927412724 18.88943317698425 17.059251446723668 0 2 1
2688 224 1 0 31.220476457418197 19.001421517305214 21.126569895452157 -1 -1 -2
2963 247 1 0 1.1652691816807235 18.097656463937493 20.464397476185304 1 1 -1
3285 274 1 0 29.367404913199735 16.42732048317498 19.491497797315148 0 1 0
2686 224 1 0 31.730319147387377 20.619830906432654 21.743563664139902 -1 -1 -2
2958 247 2 0 36.280668438140175 17.602946430775553 20.951936829635102 0 1 -1
2961 247 1 0 32.12938650303394 15.59557586452022 20.037744021542395 0 1 -1
2957 247 3 0 35.76934638545706 16.452497803378968 20.20959673860699 0 1 -1
2954 247 3 0 34.174411712518555 14.984228178174314 19.86941307842097 0 1 -1
2682 224 2 0 32.075324717290165 19.582497122374082 21.632061857040753 -1 -1 -2
2768 231 1 0 31.013057015815914 21.35968335028086 15.429656873150458 0 1 0
1977 165 1 0 35.2738604622318 22.47195251318737 15.926955955542436 0 -2 -1
497 42 3 0 29.601467984634393 21.424981062852535 17.877633235090922 1 0 -2
2955 247 2 0 34.59530930605307 15.93311475790468 20.717163279453267 0 1 -1
2687 224 1 0 33.02609165850861 19.55304644071368 21.00736364341659 -1 -1 -2
3267 273 2 0 32.91890503054963 16.863328512289115 15.807896391771063 0 2 1
3272 273 1 0 35.213812127296755 17.516706350711615 16.3159675538527 0 2 1
3266 273 3 0 33.34137268615613 16.980724973792814 17.042871116758835 0 2 1
3385 283 2 0 3.6561938145892645 28.73905391137921 17.5705715427012 1 1 3
3390 283 2 0 3.5329787568094417 29.081278225489296 22.20310321223519 1 1 3
3386 283 3 0 4.286632794264957 28.596854680550337 18.836679299918032 1 1 3
2637 220 1 0 3.4973624210717174 24.42663038953858 21.86142030666935 0 0 -1
3391 283 1 0 2.82076219408848 29.520317910946737 17.6502060111549 1 1 3
2494 208 1 0 3.30908767165986 26.404579163742138 15.313494184137852 0 -1 1
1655 138 1 0 6.533609879041447 23.274008525507615 18.983344186390976 1 -2 0
3058 255 1 0 7.199142168962212 27.242157756009718 18.495279947960743 1 0 0
3060 255 1 0 7.769695306994422 25.572933106800484 17.99640352544035 1 0 0
2373 198 1 0 7.6056115773511594 28.54718668731348 20.969074551213765 -1 -1 1
1654 138 1 0 7.349386517407221 24.01080086518983 20.38501643041526 1 -2 0
3926 328 3 0 7.064505432363843 28.521439358342715 15.394558574811182 1 0 0
2490 208 2 0 2.3907818250646917 25.834585930657404 15.084286216992355 0 -1 1
1737 145 1 0 6.288558117776588 23.534990869012454 15.653818001010038 1 -2 1
2495 208 1 0 1.8573460565510163 25.637291507605543 16.0705569193994 0 -1 1
3393 283 1 0 3.148053331222767 27.82165451059154 17.370417885045114 1 1 3
3392 283 1 0 4.4282248784880025 28.99244982344041 16.807904377121893 1 1 3
3389 283 3 0 4.272957697701506 29.000342993046512 20.986741700130246 1 1 3
3059 255 1 0 7.302411174162431 25.96877561727823 19.642928955592524 1 0 0
1656 138 1 0 5.7009181336718235 23.387067440320326 20.53433965927208 1 -2 0
1736 145 1 0 4.5160245189638495 23.030597156616352 15.817770891754721 1 -2 1
3388 283 3 0 2.264854061536153 28.77204522200987 19.90353295757926 1 1 3
1650 138 2 0 6.649735898345307 23.21789185672443 20.04858054345295 1 -2 0
3057 255 1 0 2.215234913549443 26.35649580548346 19.544173624804287 1 0 0
3055 255 1 0 1.6433668823530936 25.127396406313345 18.38991901454008 1 0 0
3049 255 2 0 2.450142042563481 25.315145506514522 19.12451853532187 1 0 0
3051 255 2 0 4.841990821688315 25.678635150404908 19.068180844166726 1 0 0
3052 255 3 0 4.954406883728045 25.91563902382345 20.235828693509507 1 0 0
3054 255 2 0 7.066040539188512 26.181639688025136 18.619318460779084 1 0 0
3053 255 3 0 5.807048050741066 25.690253894529594 18.161379022210728 1 0 0
3056 255 1 0 2.460875139812426 24.54956389237545 19.90170224102991 1 0 0
3050 255 3 0 3.6736889762165 25.25217563648265 18.425984842192126 1 0 0
3387 283 2 0 3.4866528791504092 28.75393477373343 19.91011309418552 1 1 3
461 39 3 0 15.046227913492938 29.611486455270203 19.464450821660808 0 0 0
399 34 2 0 12.099817547285676 25.09754536196594 21.04341659870968 1 1 -2
407 34 1 0 11.682073552106347 27.668027528436717 21.149541103835713 1 1 -2
398 34 3 0 12.664688187633335 23.83174360474454 21.256220951797705 1 1 -2
2866 239 1 0 13.244534774201501 25.99696754894899 17.59221833326782 1 -1 0
401 34 3 0 12.763012164916498 25.985222949275546 21.7974182322869 1 1 -2
3565 298 2 0 9.63493922325373 23.924842877541824 16.567988536027055 -1 1 1
3936 328 1 0 10.368534052687057 28.983309868996948 17.039935292197047 1 0 0
3930 328 2 0 9.945699981206477 27.994709255636746 17.407405430271464 1 0 0
3934 328 1 0 9.744808438426931 28.152965047126916 18.4849664839283 1 0 0
462 39 2 0 14.856196918599032 28.225683399749766 19.322144175449512 0 0 0
418 35 1 0 15.177673967761601 23.639478938193808 21.389121897389963 -2 -1 -1
468 39 1 0 14.322255562200349 28.011935636753694 18.37067938981074 0 0 0
2371 198 1 0 8.77736879962859 27.149283053813562 21.177598401648833 -1 -1 1
467 39 1 0 14.323043990123264 27.846856425342864 20.208106729027875 0 0 0
3929 328 3 0 8.646331873375466 27.82285322469091 16.70624990557365 1 0 0
3927 328 2 0 8.41114535399288 28.362851778760643 15.525407928042663 1 0 0
3573 298 1 0 8.617010262011577 24.078318920442968 16.72839895686775 -1 1 1
3571 298 1 0 9.858019391916924 22.89287029981102 16.392722587456586 -1 1 1
3566 298 3 0 10.061361344554086 24.838705910041337 15.535477983779119 -1 1 1
402 34 2 0 12.059866642631345 27.209175521115235 22.0352376502688 1 1 -2
2868 239 1 0 12.527096679543767 25.287472720029292 16.09305782407555 1 -1 0
2862 239 2 0 13.416419649653653 25.602752633852635 16.549716416378455 1 -1 0
397 34 2 0 12.038180381528031 22.84576444744433 20.44160644111568 1 1 -2
400 34 3 0 11.212856355439959 25.37438032567636 20.28662198900547 1 1 -2
2867 239 1 0 13.862132996896882 26.40175641975574 15.955315100671493 1 -1 0
3572 298 1 0 10.200072399636277 24.19816357714807 17.481903263766192 -1 1 1
2861 239 3 0 14.338797600114463 24.484359401597594 16.531994510478196 1 -1 0
406 34 1 0 12.746852350086373 27.855582377964136 22.522989188072252 1 1 -2
3935 328 1 0 10.55191659355314 27.08408889574327 17.26448750739506 1 0 0
405 34 1 0 11.522281043810958 22.111493804266917 21.071298999809546 1 1 -2
403 34 1 0 11.378175444461549 23.355492501219377 19.762740212252613 1 1 -2
1018 85 1 0 21.862386168234156 26.450092428047647 19.457714969712367 0 -1 1
2863 239 1 0 17.953055323022568 25.050624271164317 17.248969299813577 1 -1 0
1487 124 1 0 21.09557032847665 23.728677461748806 15.579289802802558 1 -2 1
1020 85 1 0 20.768390524919212 27.681937306947837 19.650527019331378 0 -1 1
1013 85 3 0 20.7971869831782 26.812529342888894 17.720045500893676 0 -1 1
1486 124 1 0 22.342653259981294 22.85111760773287 16.34408108046088 1 -2 1
336 28 1 0 20.34125693369412 23.847551849192815 21.20784478944966 0 0 2
1012 85 3 0 20.32868177348935 28.981808450654434 17.0848519325548 0 -1 1
335 28 1 0 18.651003719179155 24.201582713628643 20.96857860173904 0 0 2
2858 239 3 0 16.422395973588735 24.01071298614738 16.279566348997225 1 -1 0
1019 85 1 0 22.357606306649934 28.018886926455128 18.607460103096766 0 -1 1
1011 85 2 0 20.27313018610843 27.76327010530624 16.946199967838798 0 -1 1
2860 239 3 0 15.913085679284967 25.780359508878796 17.53152048616104 1 -1 0
414 35 2 0 15.241579867708616 23.22692583493372 22.389103962836227 -2 -1 -1
466 39 1 0 15.838479186531032 27.721706148561832 19.25543923945119 0 0 0
2859 239 2 0 15.593084036688422 24.83798767260155 16.86854302414745 1 -1 0
1014 85 2 0 21.51790973276094 27.329925084516514 18.917005970867937 0 -1 1
1017 85 1 0 18.085266188916144 28.26756873512029 15.308019089596268 0 -1 1
1010 85 3 0 19.720146461978914 27.177078604850475 15.917867713804203 0 -1 1
330 28 2 0 19.517346227344003 23.62068492574165 20.52235793550162 0 0 2
329 28 3 0 19.23412689186884 22.287694845007145 20.59892500595818 0 0 2
334 28 1 0 19.799788073309305 23.877944983275327 19.496524837873086 0 0 2
2865 239 1 0 18.27084678582521 24.674160434622127 15.572238079504771 1 -1 0
2972 248 1 0 16.33927110107693 27.844817849004766 22.02312299394445 -1 -1 0
2864 239 1 0 18.388429149321894 23.390764302629428 16.766823468105613 1 -1 0
1482 124 2 0 21.455162254107577 22.737235187898577 15.746336248654314 1 -2 1
2857 239 2 0 17.847164170720706 24.285112605929847 16.47414675355161 1 -1 0
3380 282 1 0 25.520203745042092 23.326492265321384 18.712126395460764 -1 1 2
3373 282 2 0 24.46652430952466 23.10967037636816 18.466787698756566 -1 1 2
3379 282 1 0 24.413847889880017 22.362830896322865 17.62010453576697 -1 1 2
3383 282 1 0 24.76224807652871 26.837627947727125 15.381648414334625 -1 1 2
1967 164 1 0 23.11076524601343 25.641686645978204 21.777874547178897 0 0 0
3384 282 1 0 23.050264586237063 26.957261485863093 15.239561895350699 -1 1 2
501 42 1 0 27.337532428910894 24.632098551625333 18.057532861258924 1 0 -2
3322 277 1 0 27.2128195374781 27.87714601656866 16.65058975717933 -1 1 0
1718 144 3 0 28.781490463438303 29.392118019783208 22.113072309798497 0 -1 1
1963 164 1 0 26.8316814569514 29.594288412043188 20.15081468404379 0 0 0
3378 282 2 0 23.791777315965092 26.99328554605721 15.93610277683892 -1 1 2
3377 282 3 0 23.653787612103375 26.066551237009374 16.970589250892665 -1 1 2
3375 282 2 0 24.162362850417065 24.866856397453304 16.88354006251184 -1 1 2
3324 277 1 0 27.159057790645164 26.335536774745844 15.704261512498904 -1 1 0
1968 164 1 0 23.83848741185209 25.227766186358423 20.129640266520635 0 0 0
1962 164 2 0 23.98959574133006 25.215904192863377 21.233814788145033 0 0 0
1966 164 1 0 24.33131805224898 24.259386943263294 21.677288778279756 0 0 0
1960 164 3 0 25.61309784554752 26.403952425400487 19.303464243860738 0 0 0
3376 282 3 0 24.944898589295395 24.446360491536915 16.04626881473082 -1 1 2
500 42 1 0 27.185433024816906 23.922861039236693 16.403930473568657 1 0 -2
3317 277 3 0 28.789748418393966 27.37630820684678 15.345607068894976 -1 1 0
3374 282 3 0 23.79039724260503 24.26634362163235 18.059716153499064 -1 1 2
1961 164 3 0 25.02663386324801 26.16040230158422 21.454651667888502 0 0 0
1957 164 2 0 25.88032565577817 29.07825655689302 19.859118050334445 0 0 0
493 42 2 0 27.82348040251245 24.26669593778624 17.14695840577511 1 0 -2
1958 164 3 0 25.882413849833444 27.999344530956854 20.83366069606348 0 0 0
1959 164 2 0 25.548318171228182 26.75948369953587 20.467546571435633 0 0 0
3382 282 1 0 23.756178130575826 28.044170699605917 16.339398346622772 -1 1 2
499 42 1 0 28.40160807993033 25.11100669359408 16.731266992981748 1 0 -2
494 42 3 0 28.813259245254347 23.323417444394767 17.60688476545127 1 0 -2
3318 277 2 0 27.427589108083335 27.41467131894471 15.67952512519059 -1 1 0
1250 105 3 0 28.38965330767721 23.73473538898394 21.645435310976982 -1 0 0
3790 316 1 0 23.051891535433057 21.799386286951133 22.433109370902024 2 1 2
2162 181 3 0 29.804970376058886 28.57251136657182 18.250862194512482 0 -1 0
2167 181 1 0 31.04481009079785 27.929586332087187 19.712177227590313 0 -1 0
2161 181 2 0 31.154195556771402 28.23162526452605 18.68401492986132 0 -1 0
2169 181 1 0 31.76779249686172 29.087482954777535 18.553162495200475 0 -1 0
2168 181 1 0 31.459272856506242 27.325067546905096 18.196068428313538 0 -1 0
1256 105 1 0 30.46103300693749 24.111103863355456 21.100321191803395 -1 0 0
2541 212 1 0 35.05949326177386 29.11436407794845 19.253116346348975 -1 -1 1
2533 212 2 0 34.936768953134546 29.445670730636042 20.240149978117003 -1 -1 1
389 33 3 0 34.307577415613736 29.532990872334032 15.18186434871473 -2 -1 0
390 33 2 0 34.742052673758465 28.653489446922215 16.192323481310652 -2 -1 0
2534 212 3 0 33.87864810456162 28.60365646967981 20.68145547644967 -1 -1 1
2418 202 2 0 33.30903260900459 24.425063999928476 22.262406037721508 -1 -1 1
1249 105 2 0 29.387367210337125 24.414203266244158 20.947597920499735 -1 0 0
2422 202 1 0 34.30005679624944 24.52180034934721 22.75677564252561 -1 -1 1
1781 149 3 0 34.22893833130095 25.8194627594015 18.015099500766546 -1 0 0
2540 212 1 0 35.87211999252687 29.291464892027783 20.756378472806755 -1 -1 1
1787 149 1 0 34.04271761177939 26.470507068653074 19.955991480591397 -1 0 0
2535 212 2 0 33.752308056836725 28.64720834467138 22.055145672662253 -1 -1 1
1257 105 1 0 29.036191261371073 24.32310316738653 19.944872587199946 -1 0 0
1975 165 1 0 35.90894418377498 24.20292764552847 16.035245479608 0 -2 -1
394 33 1 0 34.51671329439567 29.01169452234533 17.2026971381632 -2 -1 0
396 33 1 0 35.864721127478234 28.53397373121278 16.10579237505272 -2 -1 0
395 33 1 0 34.125678277357416 27.760867148770206 16.017419121664 -2 -1 0
1782 149 2 0 34.69446516198343 25.85543880047872 19.346944229232356 -1 0 0
1780 149 3 0 32.47547147095532 24.52754631931723 18.69321197969275 -1 0 0
1788 149 1 0 34.78460613365952 24.917793286011968 19.843409180000453 -1 0 0
1786 149 1 0 35.616862773650425 26.407943309460332 19.246175273598322 -1 0 0
1779 149 2 0 33.0923804781296 25.07880221437156 17.85216470589276 -1 0 0
1777 149 2 0 31.5093565067683 24.53683357437143 16.172497494213104 -1 0 0
1784 149 1 0 30.652340662871072 25.177126642263794 16.22420230333964 -1 0 0
1778 149 3 0 32.734285401064035 25.162543767588076 16.563466045949824 -1 0 0
1783 149 1 0 31.31272715082801 23.671085590923568 16.81089262112375 -1 0 0
1255 105 1 0 29.462905249204198 25.506588747586218 21.194342838154995 -1 0 0
2423 202 1 0 33.38299063907936 23.98535920495776 21.224685755554155 -1 -1 1
1970 165 3 0 36.26619988240712 23.06640204219387 17.62253534695574 0 -2 -1
1969 165 2 0 36.13422466729288 23.150915874751753 16.227359870525046 0 -2 -1
1973 165 3 0 35.77392301241854 22.169569675199817 19.52917477711625 0 -2 -1
3497 292 3 0 1.3643232192158474 36.31114490135056 22.0202490716945 1 0 0
3815 318 1 0 1.6877817186950053 32.37440245892269 17.864899983596526 0 0 0
3816 318 1 0 1.5565557370583925 33.22853117047032 16.21052267692486 0 0 0
3810 318 2 0 2.133952792075861 32.583427909953755 16.90366901786736 0 0 0
945 79 1 0 3.305394070480656 35.56023338136035 16.168558331130193 1 0 -1
943 79 1 0 3.355822550811757 35.95165686461602 14.500728168570282 1 0 -1
937 79 2 0 3.15801495720747 36.37565972717689 15.477286586667756 1 0 -1
3501 292 1 0 36.29967330786902 34.726510667535294 18.600792351357413 0 0 0
3496 292 3 0 2.567442803282025 36.567835524246455 20.04816287943845 1 0 0
3495 292 2 0 1.5544189021604045 36.318574186569165 20.661060417550363 1 0 0
1125 94 1 0 6.618142086825161 29.694258946752143 17.900844109504767 0 1 1
1520 127 1 0 4.086368067877063 34.16613835282314 22.034993293312468 1 2 -1
3811 318 1 0 5.404519825238938 35.798506316967156 19.402190280574196 0 0 0
3812 318 1 0 6.2053059537100745 34.18576637457647 19.64166844514635 0 0 0
3805 318 2 0 5.872290680864933 34.91893115236716 18.901904878304755 0 0 0
3809 318 3 0 3.4272457392112012 33.202187903272446 17.06768463624703 0 0 0
3807 318 2 0 3.902584060990259 33.67256414212354 18.264087295634628 0 0 0
3806 318 3 0 5.0146241183035 34.32765427081884 17.91632020678906 0 0 0
1118 94 3 0 7.02408934589932 31.50249129132983 16.957380026261887 0 1 1
1117 94 2 0 6.371867045848964 30.74715107252236 18.035422713092228 0 1 1
1123 94 1 0 6.672922673987522 31.063652014880695 19.008997852521563 0 1 1
3813 318 1 0 6.683222349017391 35.320185072336855 18.35602936335622 0 0 0
3808 318 3 0 3.4351140205708304 33.45954630073251 19.376715971731333 0 0 0
3814 318 1 0 2.3186701941025625 31.502529421138217 16.50501518341424 0 0 0
1124 94 1 0 5.267353156441588 30.800187348495943 17.840507436534388 0 1 1
3041 254 3 0 7.8927217083797405 33.59066138394164 22.18237450265113 1 -1 0
63 6 2 0 12.016046637172197 35.89608971952075 21.87441352438108 0 -1 -1
1574 132 3 0 9.307617996435122 35.08351809925757 17.13467196354709 0 1 -1
463 39 1 0 13.123961784886435 32.43916120434846 18.53601320321074 0 0 0
1119 94 2 0 8.316151426805652 31.269763287429484 16.74599179104816 0 1 1
3038 254 3 0 8.920484300417819 32.13318033576483 20.916938184905433 1 -1 0
1580 132 1 0 9.789195783626754 34.5390299961141 19.10820192048411 0 1 -1
64 6 3 0 11.944544554394271 34.96945299170688 21.116135052319798 0 -1 -1
1579 132 1 0 10.449662525025952 33.358012839669634 17.90344376812717 0 1 -1
460 39 3 0 12.863751454806998 30.15542018148469 19.279094748660317 0 0 0
1573 132 2 0 9.569478105868555 34.006340387973154 18.15239370801923 0 1 -1
3044 254 1 0 10.437199020001346 31.611916007985645 19.69511981763914 1 -1 0
459 39 2 0 14.043188797553762 30.43459693763555 19.413897181393402 0 0 0
457 39 2 0 13.789806214458624 32.73014305654194 19.342555127761592 0 0 0
1810 151 1 0 14.36213811904763 35.501593226158136 14.754279973041497 1 -2 1
464 39 1 0 13.25003177886849 32.896022460805256 20.22395134001715 0 0 0
1121 94 3 0 8.695522965083951 31.821984580305386 15.624809662352293 0 1 1
1122 94 2 0 10.093648610908916 32.119289128253556 15.273618976362458 0 1 1
1120 94 3 0 9.042057411849559 30.675821124975197 17.521059480659023 0 1 1
3039 254 2 0 9.064673900331027 32.91450648680114 22.031659235674404 1 -1 0
1741 146 2 0 12.59963483883004 35.9806638720395 17.286541970837625 0 0 -1
3037 254 2 0 9.90097404331887 31.212809182670455 20.50034015103221 1 -1 0
1747 146 1 0 13.64234389892993 35.72955621885319 17.340007954936915 0 0 -1
3043 254 1 0 9.316828205244708 30.34761763696975 20.206800063999626 1 -1 0
1748 146 1 0 12.103020526683 35.462673220164376 18.087870774176057 0 0 -1
458 39 3 0 14.647977017167339 31.65370172233499 19.535505087681287 0 0 0
465 39 1 0 14.355827486328872 33.59547795115276 19.085738303716106 0 0 0
1581 132 1 0 8.691145180916296 33.38463360581597 18.198716397260032 0 1 -1
3045 254 1 0 10.519013143879581 30.891334677625625 21.29327038950905 1 -1 0
1575 132 2 0 8.974312043747426 36.35642402101789 17.49226994283863 0 1 -1
1749 146 1 0 12.120767268100362 35.87204814709794 16.268122755303605 0 0 -1
1811 151 1 0 13.91966188439152 33.8373328276305 15.370281046829948 1 -2 1
1126 94 1 0 10.712735763295997 32.22355202070847 16.213109670603668 0 1 1
27 3 2 0 19.983867610123053 32.88879903581353 21.141054983335827 -1 0 0
29 3 3 0 19.967609407160733 33.47432965367794 19.948603968910625 -1 0 0
36 3 1 0 20.987247244402475 35.24116960853697 20.523275234470724 -1 0 0
35 3 1 0 19.166035455449247 35.29396484417915 20.654708418631763 -1 0 0
26 3 3 0 19.88135868800119 31.562718700981037 20.965777534467424 -1 0 0
30 3 2 0 19.985280110620856 34.92510437402902 20.049686544314408 -1 0 0
34 3 1 0 19.822542406695067 35.348940560290096 19.028790540199232 -1 0 0
3309 276 1 0 16.17576568493866 34.711893334540456 16.951875701372007 2 0 0
370 31 1 0 17.810747771334135 32.12946871018708 18.210082501332064 -2 0 2
3457 289 2 0 20.595218455806616 35.29913876712977 15.443981241340039 -1 0 1
372 31 1 0 18.44741874299573 30.748789470546978 17.17148256567032 -2 0 2
3465 289 1 0 19.73146207612619 35.965372301028125 15.376049127026798 -1 0 1
365 31 3 0 17.47775140677165 32.2144752405532 16.164587368399136 -2 0 2
366 31 2 0 17.6177559933364 31.450495586836258 17.374403048678854 -2 0 2
684 57 1 0 22.823296087242667 36.5439688106371 17.781749877555637 0 -1 1
371 31 1 0 16.720502959705772 30.916472994376992 17.55955432837581 -2 0 2
3307 276 1 0 17.75322912445364 35.46496688266665 16.932576025501238 2 0 0
3458 289 3 0 20.136349446548305 34.087020937053566 16.165676942304724 -1 0 1
3459 289 2 0 21.102100704209697 33.283538591235924 16.557077675873394 -1 0 1
3461 289 3 0 20.57996976810789 32.20528698089723 17.250234367747197 -1 0 1
3462 289 2 0 21.5431679587507 31.60750363344518 18.096766114021968 -1 0 1
3308 276 1 0 17.140882107882238 34.86244090495986 18.446107064578953 2 0 0
3301 276 2 0 16.803028055447072 35.337718541481316 17.54044995639459 2 0 0
3467 289 1 0 22.351124435167197 31.226365753216832 17.49739273065909 -1 0 1
3466 289 1 0 21.081737314289075 30.732722927766215 18.530180784731677 -1 0 1
3463 289 1 0 21.370467436079984 35.80217201669183 16.012735938241104 -1 0 1
3302 276 3 0 16.232069980999917 36.651254004506036 17.81334748923023 2 0 0
3460 289 3 0 22.28280991269047 33.31040220578657 16.212183702465758 -1 0 1
3468 289 1 0 21.935554984135365 32.26223979761502 18.876239684474545 -1 0 1
613 52 2 0 25.460164684440443 35.76922964398475 16.071727684755114 0 0 0
680 57 1 0 24.55646301898892 32.443405445145025 20.02200737029286 0 -1 1
3643 304 1 0 23.309089460181276 31.337114204497727 22.006218741560904 -1 -1 1
678 57 2 0 22.939671531388164 0.8239386975996581 18.814913684439816 0 0 1
681 57 1 0 26.43204857778219 32.85352231149342 19.96528269826755 0 -1 1
676 57 3 0 23.16985356033651 34.26036963838792 20.203412337135763 0 -1 1
1965 164 1 0 25.03234749984805 29.68152835069687 20.063357734140805 0 0 0
679 57 1 0 25.604015226080428 33.17586566015145 21.376229720467954 0 -1 1
674 57 3 0 25.345836311468975 34.3911831162972 19.655289461661578 0 -1 1
677 57 3 0 24.14052466620777 36.129878805468266 19.272892893900075 0 -1 1
675 57 2 0 24.08418901223022 34.87842034746948 19.73426263356484 0 -1 1
673 57 2 0 25.42434065873245 33.11943304157902 20.286740602415197 0 -1 1
1548 129 1 0 23.33156081607426 30.715447351037156 14.746821216519681 1 1 0
2165 181 3 0 28.330296413410203 30.070294580412803 17.885870536362425 0 -1 0
1899 159 2 0 28.67232690682725 36.56492166193649 19.376573915582135 0 0 1
2171 181 1 0 28.341802590052954 31.63495992438327 16.508580305649858 0 -1 0
2170 181 1 0 28.19375835025329 32.172176390400935 18.158085264937615 0 -1 0
621 52 1 0 25.202569530310807 34.86503156203404 16.560929095501663 0 0 0
2166 181 2 0 27.8674953014265 31.391325265554734 17.464958197066366 0 -1 0
619 52 1 0 25.725685565787856 35.53754572660564 15.054645877773682 0 0 0
2172 181 1 0 26.82419530876953 31.371885103269772 17.29695527154809 0 -1 0
1898 159 3 0 28.920069400125318 35.27733678468441 19.56078475265157 0 0 1
1964 164 1 0 25.70698245037834 28.700882734425452 18.896614538946245 0 0 0
614 52 3 0 24.252663644125946 36.575373950588855 16.215008941891657 0 0 0
1721 144 3 0 30.11862628011233 31.014385952959383 21.642358920988762 0 -1 1
2539 212 1 0 34.659680178655606 30.52718485002888 20.153289720961272 -1 -1 1
1728 144 1 0 32.11161641060433 31.241126825240194 22.44289081180433 0 -1 1
2163 181 2 0 29.658070285117397 29.835015059817135 17.766794856721692 0 -1 0
3493 292 2 0 36.19105944044629 35.80898507523831 18.754528587501095 0 0 0
2164 181 3 0 30.48440304493412 30.631594828627758 17.407480158467546 0 -1 0
1726 144 1 0 31.672029350752894 32.20585718029241 20.98041252002184 0 -1 1
3499 292 1 0 35.16213885938683 36.05079022297824 18.57826042845434 0 0 0
1905 159 1 0 30.233550850130534 35.358619757231615 21.202972276606165 0 0 1
3500 292 1 0 0.8087735297531787 36.47027084679881 18.158675614925762 1 0 0
1722 144 2 0 31.298756426661207 31.783887809577774 21.936375028394874 0 -1 1
1168 98 3 0 32.181638153565196 36.428694014555035 18.10772207007422 1 -1 3
1897 159 2 0 30.17561522269052 34.99834820105262 20.16596613383302 0 0 1
1903 159 1 0 30.24277394924537 33.92025475255732 20.12514246773695 0 0 1
388 33 3 0 35.87258284756815 31.030235929311193 15.587733971342942 -2 -1 0
1904 159 1 0 30.98995309821968 35.49488086254212 19.65341118818609 0 0 1
2901 242 1 0 35.65604728912063 33.96346116715174 22.01441663215328 -1 -1 -1
2838 237 2 0 33.14298911494064 36.604211464711184 22.370953709158293 1 0 1
2900 242 1 0 35.70027556361409 32.27533534558815 21.587943151802516 -1 -1 -1
387 33 2 0 34.91258116456145 30.677455015974434 15.001754110346084 -2 -1 0
2893 242 2 0 35.058878169789345 33.013517215010424 21.947743016514266 -1 -1 -1
2843 237 1 0 33.319581543255325 36.29963390272174 21.411113285840543 1 0 1
2894 242 3 0 33.9862009010056 33.11204824596146 21.109871260809133 -1 -1 -1
2896 242 3 0 35.353018111262095 33.01673358949551 19.31531789789717 -1 -1 -1
2895 242 2 0 34.248727792062226 33.12212788671529 19.779557478268156 -1 -1 -1
1170 98 2 0 30.831950061152234 35.821486149134124 15.825305423712546 1 -1 3
2898 242 2 0 32.945842280149435 33.58525699680979 17.743572194312776 -1 -1 -1
1176 98 1 0 31.570649700041905 35.5408624458738 15.093575283560913 1 -1 3
2897 242 3 0 33.044165926047526 33.30357242078999 19.208440427289403 -1 -1 -1
2903 242 1 0 32.96529687268138 34.640817370722075 17.542892210389095 -1 -1 -1
1174 98 1 0 30.99153784366756 35.15702609535303 16.70970297522783 1 -1 3
3494 292 3 0 36.312185211708666 36.07490107058767 20.14312512179461 0 0 0
2902 242 1 0 31.928807747471872 33.18909294779152 17.531747471209467 -1 -1 -1
2904 242 1 0 33.704918490188824 32.92777744176213 17.26814025116526 -1 -1 -1
686 58 3 0 7.982340653703852 0.747471853292725 25.511719545303492 2 1 -1
692 58 1 0 6.343124204566457 1.1518142965541478 26.645403368317996 2 1 -1
3498 292 2 0 2.293675548089814 1.0047303031836614 22.86357441209928 1 1 0
3504 292 1 0 1.8192538410210375 1.6370330215326674 23.568851675037934 1 1 0
1185 99 1 0 2.8622974418030935 7.88691414266046 27.85135941657776 -1 1 0
1064 89 1 0 4.705937908007812 3.049360752182054 29.129958254834758 3 1 -1
1057 89 2 0 5.494941044805404 3.7667433904183842 28.85340340090767 3 1 -1
480 40 1 0 5.306070541965096 4.461932646871492 25.153720393920374 -1 0 -1
688 58 3 0 7.996633461233132 3.0369273745158383 25.807602322579633 2 1 -1
3069 256 1 0 36.436496732729296 4.830380954591924 28.39620443110725 1 1 0
1460 122 1 0 7.545940356830006 5.736603016795823 27.793702076946005 2 -2 -1
1063 89 1 0 6.449474269566048 3.267875961047337 28.548358566894922 3 1 -1
1455 122 2 0 5.369930206826511 7.409983980356108 25.89536366612066 2 -2 -1
1454 122 3 0 5.79835726725097 6.57954460988138 26.90459160725075 2 -2 -1
473 40 3 0 5.844753574518412 4.30400036961972 23.11370954562517 -1 0 -1
472 40 3 0 5.689137717157762 2.05991827769593 22.68294273492613 -1 0 -1
3131 261 1 0 1.845942477843356 2.877916748549978 27.090994197494286 0 0 -1
3132 261 1 0 2.9557127884190044 3.0197390027199917 25.78709000023042 0 0 -1
1184 99 1 0 1.5422376639800015 6.9349680804272955 28.755771184874213 -1 1 0
1065 89 1 0 5.142739746171044 4.450704661884042 28.150507973067683 3 1 -1
1457 122 3 0 4.025353586718765 7.4061495694019905 25.811231245562293 2 -2 -1
1177 99 2 0 2.228683647232598 7.785992445973813 28.800316897201096 -1 1 0
3126 261 2 0 2.679698651917558 3.555498261567916 26.660738487265697 0 0 -1
1464 122 1 0 2.3919054681101217 8.51432469193239 25.212173143295438 2 -2 -1
1459 122 1 0 7.6843558130908916 7.405483010545537 27.16395158888338 2 -2 -1
1453 122 2 0 7.274788166505075 6.393670761873656 26.941536256600376 2 -2 -1
1183 99 1 0 2.9007191172027773 7.464581878497139 29.58409640407157 -1 1 0
471 40 2 0 6.052265549484193 3.18731953560765 22.440942722111554 -1 0 -1
3130 261 1 0 3.541944183854573 3.686656488441997 27.26795755135105 0 0 -1
479 40 1 0 4.2980729588104305 3.372067722179917 23.995223276489444 -1 0 -1
3124 261 3 0 0.7685803080107219 3.7253740558116704 24.922181161483675 0 0 -1
3123 261 2 0 1.1870361594762766 4.75920638434929 25.405994721009964 0 0 -1
3122 261 3 0 0.8083526612821569 6.0287830601961625 25.12716920493416 0 0 -1
1461 122 1 0 7.706502755832494 5.945384051826454 26.090348443600718 2 -2 -1
478 40 1 0 4.163075599182634 5.104457708614054 23.87425100816237 -1 0 -1
3125 261 3 0 2.1415857741434916 4.802010873634792 26.340488090474103 0 0 -1
474 40 2 0 4.866828287727466 4.299622971168235 24.167969121379898 -1 0 -1
693 58 1 0 5.999010415995332 0.871881651353443 24.93550070002144 2 1 -1
689 58 3 0 9.738314206687502 1.853078501421609 24.963167542198768 2 1 -1
695 58 1 0 9.596711106428016 3.69330530126547 23.98633335553683 2 1 -1
696 58 1 0 10.845774421200009 3.5460377779540555 25.207081093896523 2 1 -1
734 62 3 0 13.309687829509926 1.8368707511475975 28.551557566286952 -1 0 0
1866 156 2 0 15.158663083732934 4.004951707532265 23.84957678698429 0 1 1
1865 156 3 0 15.10837875772479 2.5965266253136665 23.827800357022024 0 1 1
1685 141 3 0 13.007177136540689 7.587453020856194 22.74215535363511 0 1 0
687 58 2 0 8.453492991908368 1.9823311473010674 25.442642986256995 2 1 -1
81 7 1 0 9.984368196630463 6.002334146784479 28.90841211518952 1 -1 0
1688 141 1 0 9.798307080027374 5.5902400111652195 21.25614303857949 0 1 0
2928 244 1 0 8.543082207692485 1.4227154930921129 28.779552433981124 0 0 0
1872 156 1 0 14.473157111419049 4.4613071959424095 23.019071056098632 0 1 1
1870 156 1 0 14.889040918444259 4.417297592689341 24.81159069349783 0 1 1
1404 117 1 0 15.259024585393643 5.160851953125128 27.45789662964998 -1 0 -1
735 62 2 0 14.273181397594842 0.9021030029175189 28.493153536705286 -1 0 0
740 62 1 0 11.504021489534617 2.5075850311230585 27.966360393962017 -1 0 0
741 62 1 0 12.39325659196931 1.8612291841101243 26.552328062303527 -1 0 0
1403 117 1 0 13.71608784259357 4.164527070279602 27.036249200155204 -1 0 -1
733 62 2 0 12.163751422557672 1.7353606841471405 27.64642081490389 -1 0 0
1398 117 2 0 14.193255855745967 5.01385398633343 27.59448127613444 -1 0 -1
1402 117 1 0 14.04238388295901 4.774365665787672 28.649616240247834 -1 0 -1
1395 117 2 0 12.44477319645771 6.297238326265695 26.811148745490677 -1 0 -1
739 62 1 0 11.711915152076593 0.7607681845745907 27.84944256328363 -1 0 0
1393 117 2 0 10.909880099838608 7.803175976055603 25.812179967561995 -1 0 -1
1397 117 3 0 13.686453283618764 6.295323906676176 27.25622427919475 -1 0 -1
1394 117 3 0 12.109268244342724 7.593220109322273 26.649249848920878 -1 0 -1
1401 117 1 0 10.80960957174686 7.084157407848843 24.972783951414467 -1 0 -1
1399 117 1 0 9.962202093246987 7.817028108231699 26.410535059985136 -1 0 -1
1396 117 3 0 11.775456676900173 5.3028088416704735 26.626689609289993 -1 0 -1
694 58 1 0 10.984191459306793 2.659170535118124 23.58125115199428 2 1 -1
690 58 2 0 10.35188375055805 2.9829854109561076 24.397089720097785 2 1 -1
2095 175 1 0 21.412350288792315 4.341844626915787 29.386997815285522 -1 1 -3
1139 95 1 0 17.277340835268426 3.9443551432903927 28.19221168190085 -1 0 1
1864 156 3 0 16.590433410203413 2.1609009442336773 25.60872127471051 0 1 1
1863 156 2 0 15.77577788650776 1.8294201485251231 24.801877000053643 0 1 1
1132 95 3 0 17.66652589520164 6.60971117592297 27.824599908250992 -1 0 1
3744 312 1 0 18.877472196458353 5.216038203922963 26.636393320418335 1 0 1
3738 312 2 0 18.79845233019854 5.3931677702541485 25.546402674153807 1 0 1
3743 312 1 0 17.73599759092557 5.352165180552863 25.271232496926327 1 0 1
3736 312 3 0 19.416608684116685 2.8310305133180083 26.49775406018981 1 0 1
3742 312 1 0 19.234076213900426 6.349264874815892 25.25236346732863 1 0 1
3735 312 2 0 19.60895589450587 3.1382380997641666 25.371280612791935 1 0 1
3734 312 3 0 19.889590093304655 2.3218129077937246 24.335768388899353 1 0 1
3739 312 1 0 21.929197876436806 1.789942531070148 24.352398603399717 1 0 1
3733 312 2 0 20.928739671351625 1.3601839790836843 24.57199904289407 1 0 1
3740 312 1 0 20.933048352738304 0.9889209418618647 25.58184586403347 1 0 1
3737 312 3 0 19.471530039707712 4.363259295426553 24.806241582683096 1 0 1
3346 279 1 0 19.76678655435303 36.530088032719405 29.06108121237317 0 -1 0
1140 95 1 0 18.99155665257621 4.406938242247458 28.53537456304827 -1 0 1
1131 95 2 0 17.650748198062065 6.489751816125336 29.059834082016586 -1 0 1
1134 95 2 0 17.99097604908198 4.198486861220274 28.989068972899094 -1 0 1
2673 223 1 0 22.34244889772764 6.321094135751563 27.825451851119595 2 1 -1
2665 223 2 0 22.506768935166253 7.3866330008602725 27.96170964081512 2 1 -1
2666 223 3 0 21.388199959689878 7.86884519451548 28.682678350563922 2 1 -1
1871 156 1 0 16.203368348705034 4.28721611472042 23.682885355939554 0 1 1
698 59 3 0 19.974337555693253 6.69843869897418 22.781856437139428 1 0 0
2671 223 1 0 22.60021603396096 7.903971199863024 26.964521873638294 2 1 -1
3670 306 1 0 22.705919507931053 6.197223082777781 24.888078206301536 -1 1 1
1360 114 3 0 26.55012804973613 1.526524072351946 27.619479825145344 -1 1 2
3672 306 1 0 22.946865038650024 5.265688762645794 23.26440444927414 -1 1 1
1357 114 2 0 28.336752477433027 0.8948100516209588 25.663852257449964 -1 1 2
1838 154 3 0 26.594724920162516 7.7320674030783945 28.876997691609947 -3 1 -2
3666 306 2 0 23.016853211254347 6.303721442196091 23.849054139182517 -1 1 1
2672 223 1 0 23.447961938450472 7.479472555559921 28.6680204584333 2 1 -1
1847 154 1 0 26.289781089677014 4.3987876726332376 26.28875908570787 -3 1 -2
3665 306 3 0 24.357707861696696 6.645271667410928 23.677878601853948 -1 1 1
1840 154 3 0 28.248697807887638 7.339790825587924 27.346254366827555 -3 1 -2
3671 306 1 0 22.325177246277597 6.924106886339299 23.319542642499943 -1 1 1
1367 114 1 0 23.99905377608002 1.2532660981226769 27.93867047569433 -1 1 2
1366 114 1 0 22.82341032378928 1.3551296163555222 26.619783663104712 -1 1 2
883 74 1 0 24.483523569298494 2.3030105847599396 23.193669288193483 -1 1 0
1839 154 2 0 27.12387901023768 7.084700947767382 27.80995511975115 -3 1 -2
1368 114 1 0 23.877737155620185 2.9140906598362553 26.901581582396318 -1 1 2
1362 114 2 0 23.813591132471508 1.7568139246576713 26.961776836486997 -1 1 2
1359 114 2 0 26.103985952248003 1.2885496939252368 26.488470253200557 -1 1 2
1361 114 3 0 24.83371505077397 1.279214537849329 26.030189808437992 -1 1 2
1358 114 3 0 26.890469548083708 0.94011479019037 25.47462778910583 -1 1 2
1841 154 3 0 26.382218730927224 6.039294811983461 27.44523583460822 -3 1 -2
1842 154 2 0 26.923453786684235 5.300395574466514 26.331426291313157 -3 1 -2
1846 154 1 0 28.001804360505915 5.101927257805184 26.42053472907055 -3 1 -2
1363 114 1 0 28.627513670476343 35.96968018362624 26.37143322072321 -1 0 2
1848 154 1 0 26.77108369363188 5.736850591504045 25.29714059967215 -3 1 -2
3663 306 2 0 24.922722347870046 7.481647922089275 24.582920940234693 -1 1 1
3692 308 1 0 35.69122333091865 0.8202254219961809 25.264625448648605 0 2 0
3067 256 1 0 34.92196852999815 4.599656357145758 29.417940685838367 1 1 0
3061 256 2 0 35.81832152482795 4.0995326838268085 28.9847580518952 1 1 0
2041 171 2 0 30.650823185142666 4.109764467201769 28.51214449500265 -1 2 1
1882 157 1 0 31.980665004404685 5.345489830353661 26.389150582131993 1 0 -1
2048 171 1 0 30.751494123914053 5.149891637722242 28.833660964858254 -1 2 1
3072 256 1 0 32.37920736357441 3.106272441273732 25.629063381130678 1 1 0
2047 171 1 0 29.656647265611845 3.966524767721466 28.12970705561266 -1 2 1
1879 157 1 0 30.669198675987456 3.7418731356843282 21.48290182422338 1 0 -1
3071 256 1 0 32.26729442192972 1.3972763605117484 25.79753458619166 1 1 0
1874 157 3 0 30.72399921680144 5.361940996988742 22.723667390948307 1 0 -1
3128 261 1 0 35.738207652385036 7.134605816107433 23.68911362958499 -1 0 -1
3127 261 1 0 34.63469982117373 6.115831507954689 24.695702833463752 -1 0 -1
3121 261 2 0 35.65995252748686 6.166818572172948 24.217524997987248 -1 0 -1
2049 171 1 0 31.45821767601924 3.778441443207789 27.79890154927826 -1 2 1
1883 157 1 0 31.701542118075874 7.102072870262944 26.400844910465782 1 0 -1
1878 157 2 0 31.35076881169762 6.119655447811539 26.10876146813084 1 0 -1
3066 256 2 0 32.95381647387493 2.214112164862775 25.708781810379445 1 1 0
3063 256 2 0 34.48796459423399 3.369768689342222 27.15993876756173 1 1 0
1876 157 3 0 30.52731412165132 4.054394579720598 24.55109485534954 1 0 -1
1875 157 2 0 30.789085292156482 5.133339719175193 24.025299558039492 1 0 -1
3007 251 1 0 33.67441915503385 7.243412738154418 28.658765713810013 0 1 -1
3070 256 1 0 33.53243541455008 2.1409152000976213 24.781664003393207 1 1 0
3065 256 3 0 33.8436392394554 2.243588458433935 26.7900958445006 1 1 0
3062 256 3 0 35.27954800823134 2.9891048463715717 28.16067415872584 1 1 0
1877 157 3 0 31.15618554888282 6.196098397029068 24.694051374826536 1 0 -1
3064 256 3 0 34.36787363544793 4.516340829047791 26.747926074379777 1 1 0
1884 157 1 0 30.375257813366876 5.886182010354906 26.62149950831497 1 0 -1
3129 261 1 0 35.71776684839137 5.428313796632234 23.45875656154922 -1 0 -1
1178 99 3 0 1.52979239414267 9.02724543853639 29.035529123149637 -1 1 0
2444 204 1 0 5.044181865529845 10.693840600121579 27.418735252151112 2 0 -1
3628 303 3 0 2.302771381398752 14.567007644139494 25.392167262818894 0 1 -2
1434 120 2 0 5.0325270462859875 12.320677141118813 24.468016458550913 -1 0 0
1433 120 3 0 4.5739454042553565 11.26628953768249 23.562893059106347 -1 0 0
1674 140 2 0 1.6823942529550604 12.470857635919241 27.93522267281236 0 1 0
1438 120 1 0 5.729756210707458 11.797943880247672 25.135460655785785 -1 0 0
2439 204 2 0 7.707357979563099 10.049426357945196 28.46720024867429 2 0 -1
1673 140 3 0 1.8484203238797483 13.361383617218898 29.037472615025038 0 1 0
2445 204 1 0 5.794218840528286 11.354925382021788 28.908350027992206 2 0 -1
1671 140 2 0 3.0463031783579155 13.78962678625205 29.286837473419837 0 1 0
1456 122 3 0 6.077454410691938 8.039070830227367 25.23165479335396 2 -2 -1
1439 120 1 0 5.606608523069219 13.00472364524447 23.83694696623991 -1 0 0
3635 303 1 0 4.879780245912193 14.888396019623832 25.141176818792744 0 1 -2
2438 204 3 0 7.1443847197645 10.638757021025599 27.485769498830702 2 0 -1
1440 120 1 0 4.217797094288999 12.736398289176467 25.033603174552628 -1 0 0
2437 204 2 0 5.838884082204379 11.287819501368855 27.792399396906657 2 0 -1
1431 120 2 0 4.059687850848947 11.706877753650199 22.393534913916945 -1 0 0
2443 204 1 0 5.8745856047479075 12.377323055353935 27.45150889933554 2 0 -1
1679 140 1 0 0.9721245880482025 12.96520973880573 27.293909567063487 0 1 0
1680 140 1 0 2.6342791002613444 12.337060722826251 27.436192853206176 0 1 0
1678 140 1 0 1.286654606393084 11.529569272543121 28.33805135342463 0 1 0
1462 122 1 0 4.011367637252139 9.232059638058036 24.867749933383642 2 -2 -1
2468 206 1 0 7.054797372926883 9.819614331141242 23.059677445011918 0 1 0
1672 140 3 0 4.104186088249813 13.372287453752 28.828852999310058 0 1 0
1463 122 1 0 3.36819282200618 7.8564529661964535 23.886741934576683 2 -2 -1
103 9 1 0 1.9113837367421465 13.093664801428975 23.373381100780936 -2 0 1
1458 122 2 0 3.4055385457600176 8.302625131259163 24.843610131252305 2 -2 -1
2461 206 2 0 7.925448263120549 10.192158055173843 23.58901163265515 0 1 0
1425 119 1 0 13.640339155238472 9.549226514375736 27.16488891066919 0 -1 -2
1424 119 1 0 13.643891747044659 11.316969682346562 26.923350498737555 0 -1 -2
2467 206 1 0 7.657080415139432 10.320284281382198 24.628191041309517 0 1 0
1400 117 1 0 11.172270314550042 8.841023035869357 25.502736669404744 -1 0 -1
2323 194 1 0 11.56491222943455 10.71776887157439 26.543832121376564 0 0 0
2325 194 1 0 10.347663583407554 11.673940078496384 25.639960602726983 0 0 0
2317 194 2 0 11.02484776976478 11.638248474291018 26.505057686994448 0 0 0
2324 194 1 0 10.35042544506673 11.679754780922996 27.362440307627928 0 0 0
2318 194 3 0 12.009291048368645 12.662537906207488 26.498831593112186 0 0 0
2441 204 3 0 8.923542061653286 9.49126335937418 28.0188482147062 2 0 -1
2319 194 2 0 11.619327339097524 13.899743272790346 26.139822417951812 0 0 0
2442 204 2 0 9.874366981008052 9.297806274640335 29.078941746302043 2 0 -1
2321 194 3 0 12.65569356513639 14.713970949162565 26.21429554128659 0 0 0
2447 204 1 0 9.603207927752544 8.409690468075025 29.657202414481226 2 0 -1
2320 194 3 0 10.471247856403098 14.062964892778025 25.882817461999544 0 0 0
1417 119 2 0 14.248650386186464 10.43532127940305 27.163209611408938 0 -1 -2
1620 135 1 0 13.631456644100837 14.31520779717829 29.04316279262046 1 -1 1
194 17 3 0 13.820564332848873 13.631837837253858 23.540831108711057 0 -1 0
193 17 2 0 13.760234749185269 12.222197262643816 23.612170139024734 0 -1 0
1619 135 1 0 13.20483581344572 12.872544980404927 28.289149946279185 1 -1 1
1686 141 2 0 14.210925435869477 8.276733489346016 22.377726439993154 0 1 0
1691 141 1 0 14.413431324136747 8.955897808237953 23.217285791754424 0 1 0
2448 204 1 0 10.850519133326207 9.142350503714992 28.654821745783213 2 0 -1
201 17 1 0 13.239601132193666 11.780979460076576 22.7202099489417 0 -1 0
2469 206 1 0 8.867937077509023 9.624328253171816 23.40512591859704 0 1 0
2462 206 3 0 8.144141459509711 11.540989195150827 23.119836548748683 0 1 0
200 17 1 0 13.09106492010668 11.970651172620652 24.386741128505005 0 -1 0
2471 206 1 0 11.410044237417928 13.72107775501651 22.5489840862904 0 1 0
2464 206 3 0 10.441423516675007 11.21580301014543 23.2191088532241 0 1 0
2463 206 2 0 9.45315647225667 11.868654480512054 22.880977254590444 0 1 0
1423 119 1 0 14.7898516143049 10.542213342744137 28.12215227751334 0 -1 -2
199 17 1 0 14.785865119989879 11.929740603591995 23.92089758416343 0 -1 0
1418 119 3 0 15.235205608846217 10.27556223067278 26.071317735444456 0 -1 -2
1419 119 2 0 16.491338498854567 10.688701673296457 26.395722907198746 0 -1 -2
1426 119 1 0 18.704728037752837 11.690427447839351 26.268195546162485 0 -1 -2
2668 223 3 0 21.71824975705764 9.886231999218696 27.773650952342845 2 1 -1
2676 223 1 0 19.47992944806687 11.24370344790744 28.562871901616223 2 1 -1
195 17 2 0 14.980261148194318 14.251295059094108 23.311662409573433 0 -1 0
1422 119 2 0 18.69209323247244 10.863760603365128 25.54749163033685 0 -1 -2
1427 119 1 0 19.439710735085992 10.127881577389951 25.80986390975832 0 -1 -2
1428 119 1 0 18.90102569473732 11.363729785261256 24.556378900416224 0 -1 -2
2102 176 3 0 20.636763152693007 14.158422409583542 28.05338695042283 1 0 -2
2667 223 2 0 21.15701963499575 9.180000487955894 28.610926752875514 2 1 -1
1420 119 3 0 16.82455439002282 11.361404070629552 27.31487423522501 0 -1 -2
1421 119 3 0 17.34785607566406 10.358845477202335 25.38996052383121 0 -1 -2
3717 310 1 0 19.82568963344406 13.108952572455655 23.070112730280204 -1 0 2
3709 310 2 0 19.784995164654877 13.98005410656073 22.394727519271242 -1 0 2
1136 95 1 0 16.28938418722715 8.765529998575078 28.597345010962485 -1 0 1
1135 95 1 0 18.09601080784911 8.98293197007166 28.380940724996165 -1 0 1
196 17 3 0 16.021240342032772 13.696957921151212 23.30337757491601 0 -1 0
2722 227 1 0 16.828351483480247 13.718196797623131 27.027546161761883 -3 -1 -1
2669 223 3 0 20.255458239861674 9.575890740047717 29.506901602968888 2 1 -1
47 4 1 0 21.355077270559295 10.605264537122375 25.038992971229018 2 -1 1
48 4 1 0 21.899882148766793 9.004914933366447 24.27126730405102 2 -1 1
42 4 2 0 22.203722896737972 9.980290457851204 24.697572166560693 2 -1 1
2101 176 2 0 20.915725791393825 14.548443505408255 26.665672685311694 1 0 -2
697 59 2 0 19.036379492609395 7.773407038649154 22.618988896047945 1 0 0
705 59 1 0 19.50247899750686 8.652414921064283 22.975348967725523 1 0 0
2108 176 1 0 20.16209680456774 15.15163991144398 26.17931114536567 1 0 -2
40 4 3 0 21.89624052786243 12.626902904855648 24.095040499653084 2 -1 1
2723 227 1 0 16.593927422043105 14.150083848779252 25.3148190161993 -3 -1 -1
2718 227 2 0 16.7606208411899 14.55239998518663 26.34042738368233 -3 -1 -1
3715 310 1 0 20.413024055922925 14.823949662778492 22.734389150108765 -1 0 2
2107 176 1 0 21.09827416700192 13.545628187695197 26.21341916077041 1 0 -2
1844 154 1 0 27.68238981052847 8.781585986024375 30.060774439212516 -3 1 -2
1837 154 2 0 27.07262599706095 8.993084618084763 29.188514286109672 -3 1 -2
3731 311 1 0 29.42412399591764 12.71801424898606 28.071776542787184 2 -1 -1
212 18 1 0 28.215377465664073 14.559814440689474 26.765954127781818 0 -1 3
45 4 1 0 23.94350268582569 14.43595466446864 23.455821818116725 2 -1 1
1845 154 1 0 27.74480104258405 9.456507635766934 28.333986473865423 -3 1 -2
208 18 3 0 26.438376188612885 13.155188121779105 27.94808475475213 0 -1 3
205 18 2 0 27.5605676566932 15.055162502937053 26.118863669162195 0 -1 3
216 18 1 0 23.163770762560215 11.782491041653392 26.871349612380506 0 -1 3
207 18 2 0 25.976868129094857 13.329279247919372 26.867762545186764 0 -1 3
3664 306 3 0 24.54651669708566 7.804470991293078 25.683606727160242 -1 1 1
210 18 2 0 24.148232067107635 11.926181286873382 27.302842536594845 0 -1 3
214 18 1 0 24.48512029571061 10.923020586386514 27.599672379266423 0 -1 3
206 18 3 0 26.350126778734747 14.210380464086724 25.921283505501247 0 -1 3
43 4 1 0 24.541530083648187 13.924691970075212 21.7564677748636 2 -1 1
3661 306 2 0 26.700687365153975 9.00646982778508 24.72323760610621 -1 1 1
3667 306 1 0 26.695501183670643 8.915755154285868 25.818393737167465 -1 1 1
3668 306 1 0 27.769190130327747 9.022726928167707 24.54621973065347 -1 1 1
39 4 2 0 22.755506315185166 11.944226751845203 23.54715287591422 2 -1 1
547 46 1 0 28.31256495802852 11.595654067666175 23.450981478026506 2 0 -1
541 46 2 0 28.555150410959673 12.640891922084373 23.693481939262494 2 0 -1
549 46 1 0 28.997635522195043 13.127989424514876 22.753026234204953 2 0 -1
209 18 3 0 24.940630691714354 12.603535407294057 26.336828243249037 0 -1 3
37 4 2 0 23.767907566100785 13.890363156469029 22.500985719571354 2 -1 1
38 4 3 0 23.692799224415882 12.475929126460098 22.742487721111043 2 -1 1
46 4 1 0 22.895437600058763 9.760070907336477 25.443709120134944 2 -1 1
41 4 3 0 22.846733129634707 10.624097291790967 23.56294377118931 2 -1 1
215 18 1 0 24.098049219295234 12.526586984405329 28.215362798121603 0 -1 3
3824 319 1 0 29.355998683638862 9.365376158630847 22.292511098159146 -1 2 -2
211 18 1 0 27.370671115583438 16.147346578930588 26.32048090569086 0 -1 3
3669 306 1 0 26.382166242731248 9.994398364534025 24.461287791511726 -1 1 1
3662 306 3 0 26.06021670601259 7.947937033780304 24.041779123852322 -1 1 1
2087 174 1 0 34.106739614797334 14.5237455917805 24.24492164346725 -2 -1 0
2086 174 1 0 32.60319175384529 14.437757932562443 25.288006048683183 -2 -1 0
97 9 2 0 0.8736309731714041 12.856275174525042 23.049852438631525 -2 0 1
550 46 1 0 31.879123552078152 10.463005589861847 27.35273240447774 2 0 -1
2083 174 1 0 32.64891582527403 9.570419681648225 23.69867434762534 -2 -1 0
2077 174 2 0 32.81328528188878 10.087908093509933 22.74140557917154 -2 -1 0
2078 174 3 0 32.48142161412137 11.434048696497587 22.727596262798606 -2 -1 0
2080 174 3 0 32.95070467495226 11.938612324338697 24.9887946179603 -2 -1 0
106 9 1 0 34.73365588078729 8.972507830418634 25.357207756949986 -3 0 1
108 9 1 0 34.05220807174557 10.119012482265484 26.44694495980727 -3 0 1
102 9 2 0 35.0438315570219 9.762077360828652 26.120377892905626 -3 0 1
107 9 1 0 35.605972415903864 9.276639779431353 26.94251607225114 -3 0 1
3008 251 1 0 34.142176257440546 8.83281524636176 29.41602341152317 0 1 -1
542 46 3 0 29.52420062113902 12.743463314785023 24.721488148890916 2 0 -1
543 46 2 0 30.08058440901841 11.56748379107505 25.114780092250008 2 0 -1
544 46 3 0 30.15459113743011 10.634719095262334 24.32523288709891 2 0 -1
100 9 3 0 35.480357308657034 10.567940137418459 23.438867169714708 -3 0 1
548 46 1 0 27.720203643960264 13.175898239339867 24.080212634479256 2 0 -1
3723 311 2 0 32.22311628446838 13.474091796440762 28.912191423594102 2 -1 -1
3727 311 1 0 35.07703785582055 13.578174970342374 29.22373128916305 2 -1 -1
3721 311 2 0 34.534380373669016 12.955845750267272 28.481144120767123 2 -1 -1
546 46 2 0 30.828879781556406 10.50811063888713 27.165638857638967 2 0 -1
2082 174 2 0 33.03229534650138 14.469546505777966 24.274575674467947 -2 -1 0
2081 174 3 0 32.50062390461647 13.453527181269212 23.424572381142543 -2 -1 0
3633 303 1 0 35.93106014586081 15.081827617259798 25.11243535745031 -1 1 -2
552 46 1 0 30.403590417238345 9.56388069982494 26.694123062302424 2 0 -1
3729 311 1 0 34.4682754399001 13.356672597956521 27.505215451664956 2 -1 -1
551 46 1 0 30.294542419823493 10.621930200047107 28.085416824881253 2 0 -1
3722 311 3 0 33.2139357887422 12.62516606127192 28.93232835045775 2 -1 -1
3725 311 3 0 31.106209447067375 12.800057912262579 29.272868758253622 2 -1 -1
99 9 2 0 35.76881434476882 11.234812949487626 24.428266022619344 -3 0 1
98 9 3 0 36.16809297703941 12.50370540198899 24.27763955174822 -3 0 1
105 9 1 0 36.40315355215291 13.784531311505855 22.66054882873799 -3 0 1
3724 311 3 0 32.34134614242663 14.660435049123086 28.73167160521014 2 -1 -1
101 9 3 0 35.83923600681878 10.909193928792352 25.71534493311173 -3 0 1
2079 174 2 0 32.70848466668519 12.22382904535105 23.833370845608442 -2 -1 0
545 46 3 0 30.468262037642926 11.680429066898133 26.362152098150652 2 0 -1
3636 303 1 0 4.1829201910565255 15.402230090255694 23.62484313946658 0 1 -2
2947 246 1 0 7.681019982989349 15.813049900592492 28.10844412341935 1 1 -2
2946 246 2 0 7.103754553377337 20.50446959734509 27.232474903858584 1 1 -2
2951 246 1 0 6.2458686139407105 20.357785420501436 26.506204458086255 1 1 -2
3627 303 2 0 2.4056367163751404 15.764582337632753 25.494306051019926 0 1 -2
3629 303 3 0 3.520836886196055 16.535997591277557 25.320030462705972 0 1 -2
3626 303 3 0 1.3058224022934362 16.57706361272403 25.79172164054816 0 1 -2
1706 143 3 0 0.7250207086614769 21.51884311368335 26.41110543672129 -1 0 -1
2952 246 1 0 6.670344318967134 20.68993399099159 28.273585211596522 1 1 -2
1709 143 3 0 1.3646260581261311 20.120092291893293 27.92875643850289 -1 0 -1
2943 246 2 0 7.415098371320958 18.26639873634976 27.245437777118568 1 1 -2
1714 143 1 0 2.372838928469497 19.142559567448878 29.37442094340738 -1 0 -1
3634 303 1 0 5.391924945936325 16.467223060472087 24.39577825550259 0 1 -2
1490 125 3 0 3.1412555890197416 20.502161292299498 22.330448146961682 -1 0 1
2950 246 1 0 7.714995892548878 21.4139015620712 26.933117877578574 1 1 -2
1495 125 1 0 3.4413933486296924 18.461453848840403 23.126757096751025 -1 0 1
1496 125 1 0 2.9754015291144182 19.780803994031352 24.238915517139752 -1 0 1
1489 125 2 0 2.787478021188081 19.363968796810305 23.251658775494843 -1 0 1
3630 303 2 0 4.544303349946226 15.79006366138064 24.573262527807678 0 1 -2
1677 140 1 0 3.7851666656429024 16.368654883445384 29.077615178671106 0 1 0
2230 186 1 0 7.868657313485352 15.629485925600344 22.92435052381824 1 0 -1
1707 143 2 0 1.8180104455463255 21.013076547081305 27.022508455833794 -1 0 -1
1716 143 1 0 2.921635106226469 18.787534511408595 27.685737925598755 -1 0 -1
1708 143 3 0 2.9793136419350237 21.257299424458537 26.75288455824361 -1 0 -1
1710 143 2 0 2.0417362431793618 18.96866133305569 28.346287845779578 -1 0 -1
1715 143 1 0 1.376959804979246 18.08440488055223 28.322705817820808 -1 0 -1
1497 125 1 0 1.7447994455000835 19.12501409032423 23.107605884026658 -1 0 1
2229 186 1 0 6.029074101053285 20.564547414983906 24.048986499104576 1 0 -1
2944 246 3 0 6.336788372782802 17.99230642498162 27.657037331568116 1 1 -2
2227 186 1 0 7.427654613134342 21.331501299145625 23.29780969466765 1 0 -1
2221 186 2 0 6.805731239272258 20.398119697148 23.288132176786124 1 0 -1
2223 186 2 0 7.676514947007344 18.113528644560233 23.17953839099174 1 0 -1
2222 186 3 0 7.688888740259421 19.343907945486894 23.73288726175832 1 0 -1
2949 246 1 0 9.322099800107459 15.614082609108465 27.527732499869717 1 1 -2
2941 246 2 0 8.284732968771118 15.992847620910121 27.25641414901732 1 1 -2
2948 246 1 0 7.989070165367891 15.406995672998782 26.330803348690637 1 1 -2
2945 246 3 0 7.98713249764011 19.417213243657567 27.15582406889825 1 1 -2
2942 246 3 0 8.338546965135821 17.356652830043473 26.835620353938605 1 1 -2
2226 186 2 0 8.77466770570035 15.966824848219035 23.336830019460884 1 0 -1
3246 271 2 0 10.585217358022225 22.212619409266523 27.689759529904304 -1 -2 -2
2232 186 1 0 9.220804403983909 15.447998895333557 24.181953066617282 1 0 -1
2326 194 1 0 11.765829039460936 16.57134548377496 25.98534934204894 0 0 0
3251 271 1 0 10.40966938127848 21.553187823018206 26.848165307727772 -1 -2 -2
2327 194 1 0 13.527498709150414 16.422612977107647 25.682904732124896 0 0 0
2322 194 2 0 12.521848231746265 15.96771796776502 25.542422027077485 0 0 0
2713 227 2 0 14.209014243770703 17.150046491812127 29.337109353276446 -3 -1 -1
2719 227 1 0 13.124320224126189 17.237955982984882 29.343550482797767 -3 -1 -1
2328 194 1 0 12.246838904693384 15.795500680127297 24.519368478673456 0 0 0
3250 271 1 0 10.636894706282153 21.631224423889915 28.592609623019364 -1 -2 -2
1531 128 1 0 10.71405541103375 18.64847495418206 23.304378107752775 0 1 -1
1528 128 3 0 13.66413633688712 20.05764690621723 23.845741527385552 0 1 -1
2225 186 3 0 8.641517141203721 17.37672757185961 23.751920157060752 1 0 -1
1527 128 2 0 12.84307657231833 20.313064853287965 24.707337910026986 0 1 -1
1525 128 2 0 10.98549779478709 19.778440763205978 23.249043362186207 0 1 -1
1526 128 3 0 11.513616054996834 20.200208265147538 24.476522449816102 0 1 -1
1532 128 1 0 10.036729195788434 20.293505741932798 23.077223357155333 0 1 -1
1533 128 1 0 11.693542983188422 20.081040117228024 22.42051465871041 0 1 -1
1529 128 3 0 13.020253653225932 20.69847595757049 25.900263417420025 0 1 -1
1530 128 2 0 14.41414088003058 20.921326861859626 26.344634274380557 0 1 -1
1536 128 1 0 14.313707957877469 21.736753207318074 27.01958083231225 0 1 -1
197 17 3 0 14.759331901651244 15.543257517933943 23.22075492925171 0 -1 0
1534 128 1 0 14.745806935480097 20.057207869312084 26.890362672339737 0 1 -1
2714 227 3 0 14.414912468205094 16.424030653183905 28.069687990296572 -3 -1 -1
416 35 1 0 20.545845867730392 22.093591187084424 24.083710072776334 -2 -1 -1
411 35 2 0 17.261940558028314 22.243587232345725 23.410941191161875 -2 -1 -1
2104 176 3 0 19.617869218673075 16.199582986961673 28.33785010671358 1 0 -2
2716 227 3 0 16.412864834962974 15.474517834459544 28.735149418453705 -3 -1 -1
1835 153 1 0 20.647568273420585 20.00632719325809 29.192871811660957 0 0 1
2103 176 2 0 20.014988267361773 15.112517465507008 28.756287270202918 1 0 -2
2109 176 1 0 21.71673737134411 15.22703242573184 26.69322620295527 1 0 -2
1535 128 1 0 14.936109845964204 21.161430415855506 25.444896481794895 0 1 -1
2717 227 3 0 15.553726853267992 15.27343534346834 26.727967036771485 -3 -1 -1
2724 227 1 0 17.65094063147485 15.180748320889762 26.43104286358187 -3 -1 -1
2715 227 2 0 15.54896020464863 15.707635721642104 27.953792258793015 -3 -1 -1
204 17 1 0 15.443961162278883 17.278050047848712 24.14837920185219 0 -1 0
787 66 1 0 20.84820720746389 16.318199469759914 24.793450652536496 1 -1 -1
203 17 1 0 15.839564850262555 17.148672113029576 22.409841998589336 0 -1 0
198 17 2 0 15.778434400468505 16.59223168982278 23.36416007829652 0 -1 0
455 38 1 0 16.822518076988374 21.67660267617422 28.32031899046619 0 0 1
783 66 2 0 19.613936582958214 18.202338014955163 25.722430707869282 1 -1 -1
782 66 3 0 20.92638796974155 18.145267933151473 25.69642125955159 1 -1 -1
786 66 2 0 17.78047249762133 19.169509573594777 27.025166288992853 1 -1 -1
781 66 2 0 21.37898776452565 17.258237885042924 24.662946466275073 1 -1 -1
412 35 3 0 16.684385330124684 21.835153539246686 24.36329223025999 -2 -1 -1
202 17 1 0 16.7309710718497 16.139858089812346 23.600984431951634 0 -1 0
409 35 2 0 19.455486692561383 22.001357919219892 24.372728498374027 -2 -1 -1
785 66 3 0 19.19662557766509 19.01518541640646 26.711432382206834 1 -1 -1
415 35 1 0 19.309095379763956 21.057708522726326 24.799049491466285 -2 -1 -1
792 66 1 0 17.605996970382336 20.243270699368967 27.20943997077179 1 -1 -1
790 66 1 0 17.10062523248397 18.84331328007822 26.212681534043966 1 -1 -1
784 66 3 0 18.860202099673685 17.65570158649371 24.91362103038863 1 -1 -1
791 66 1 0 17.619670804219815 18.602714995841236 27.98367145485346 1 -1 -1
3787 316 1 0 22.183184541818594 21.647375512958963 27.785240882684914 2 1 2
3781 316 2 0 22.61402438969834 22.363780073522516 27.080206072642795 2 1 2
1818 152 2 0 28.333251630882692 21.513947791376566 29.0654851072879 -1 2 1
1822 152 1 0 27.97323302353769 20.70459349389781 28.43257755290178 -1 2 1
3115 260 1 0 24.328076494434633 14.823744732056449 28.992445102368524 1 0 -1
788 66 1 0 21.180039630343614 17.576501573452 23.586682236222753 1 -1 -1
1911 160 2 0 25.376489086053255 18.54138501231309 26.5121047356931 -1 0 0
1916 160 1 0 25.62981827074981 18.990783075652956 23.867119320046502 -1 0 0
2742 229 2 0 28.67046066252187 20.480600439811226 25.071902881550756 -1 0 0
2746 229 1 0 29.14133084434617 21.128486957221913 24.296023121310583 -1 0 0
1910 160 3 0 24.979306410535553 17.839511571122994 25.4127265609134 -1 0 0
1909 160 2 0 25.65499289858384 17.9680837365249 24.167120446355618 -1 0 0
2740 229 3 0 29.26236682426553 19.47542531355467 22.596920972350993 -1 0 0
2738 229 3 0 29.55568426924746 17.46441925863188 23.508515368981456 -1 0 0
2741 229 3 0 29.022232287059293 19.114707053872255 24.845670829107366 -1 0 0
2739 229 2 0 29.302341025371653 18.75288096014945 23.571517705717238 -1 0 0
3792 316 1 0 24.332516545386678 20.405986856512985 22.296792989016367 2 1 2
3117 260 1 0 26.072954606424815 14.582212964459023 29.493857214041192 1 0 -1
213 18 1 0 28.031909904672677 15.05312936719109 25.182502366106245 0 -1 3
1920 160 1 0 24.668973890767504 20.255316476859782 28.52611706550649 -1 0 0
789 66 1 0 22.528507667691468 17.203015095831812 24.80683158694619 1 -1 -1
3788 316 1 0 23.441351753972544 22.8328877855004 27.570840889764604 2 1 2
3786 316 2 0 23.97587720847458 21.329795828356556 22.784484920355585 2 1 2
1913 160 3 0 24.371982668897054 18.54673933210613 27.397362827221862 -1 0 0
2748 229 1 0 29.03912320552639 20.799095206573426 26.03156096538757 -1 0 0
1824 152 1 0 29.322257199020793 21.836142820018352 28.753907760342983 -1 2 1
2747 229 1 0 27.594875683813576 20.59395809609751 25.088045337638164 -1 0 0
3785 316 3 0 23.747585875588562 20.92640241236482 24.16251775158937 2 1 2
3783 316 2 0 23.570827657865465 21.940169644982294 24.98369543120045 2 1 2
1912 160 3 0 26.411966122329627 19.11860030152962 26.622387737759134 -1 0 0
1917 160 1 0 26.677686859373626 17.674235057032664 24.346300153464917 -1 0 0
1918 160 1 0 23.48969807564597 19.046468021636755 29.093714223263678 -1 0 0
1915 160 1 0 25.02361169046417 17.35300582341324 23.511441224725765 -1 0 0
1914 160 2 0 24.490464896954837 19.1821425508309 28.638156953540634 -1 0 0
3782 316 3 0 23.18220142692503 21.426081064970084 26.16209044308831 2 1 2
1919 160 1 0 25.28655508261015 18.716147959973856 29.16946475629131 -1 0 0
2743 229 1 0 29.122077234309867 16.04143057819161 22.133620378369866 -1 0 0
3261 272 1 0 32.24958947936673 17.613502820476423 26.12231415125637 0 0 -1
3254 272 3 0 32.01248201665713 17.987835853194102 28.18534549286991 0 0 -1
2684 224 1 0 35.51563106040592 18.57847295712209 25.317234868856847 -1 -1 -2
2685 224 1 0 34.859526116611256 20.136274806113747 25.40829652981775 -1 -1 -2
2683 224 1 0 34.399863226876455 18.645016471453054 26.519813805111312 -1 -1 -2
3256 272 3 0 34.058501428736776 17.04234010749193 28.02762258751831 0 0 -1
2677 224 2 0 34.617842421900484 19.07547980875141 25.53193508035137 -1 -1 -2
2678 224 3 0 33.56692247465256 18.65894652889428 24.64050434512525 -1 -1 -2
3255 272 2 0 33.27627177106681 17.728775208593827 28.614458023967934 0 0 -1
2421 202 1 0 32.05040738135179 21.02303821875547 26.270325880202595 -1 -1 1
2679 224 2 0 33.43378481964692 19.305385034501473 23.48802408539535 -1 -1 -2
257 22 3 0 34.193284705420965 21.82094919276516 29.432709145167397 -1 -1 1
2414 202 3 0 31.867631792730982 22.618974993153994 24.99046630336163 -1 -1 1
2088 174 1 0 32.65490389334831 15.40910842342416 23.81083235570354 -2 -1 0
2680 224 3 0 34.384473717489264 19.98835100145276 23.086138166571292 -1 -1 -2
2681 224 3 0 32.29485529815151 19.002788955330765 22.862518275259195 -1 -1 -2
2419 202 1 0 33.532495434331906 21.977900290010343 26.08749870485057 -1 -1 1
3631 303 1 0 35.994802247688625 15.335714021115981 26.857908148267693 -1 1 -2
3625 303 2 0 36.0459511734363 15.84135308370643 25.91321775723316 -1 1 -2
264 22 1 0 32.25787349910184 21.72799185562721 29.198567830039565 -1 -1 1
3632 303 1 0 35.24078529403385 16.58812372787173 25.800562757407306 -1 1 -2
2737 229 2 0 29.80530974330125 16.83196402743279 22.26635600178271 -1 0 0
3253 272 2 0 31.587404353281833 17.2978069644142 26.943844189282583 0 0 -1
2745 229 1 0 30.787199964508197 16.324292691757975 22.256667823561443 -1 0 0
3260 272 1 0 30.526326174767412 17.569344064018484 26.805662420249366 0 0 -1
3259 272 1 0 31.605190181321667 16.224355577803728 27.133383828244494 0 0 -1
1705 143 2 0 1.017301619931405 22.465055554994557 25.396284264101997 -1 0 -1
1711 143 1 0 36.47745591875312 22.22135555825213 24.463376556099966 -2 0 -1
2186 183 3 0 4.638105684977278 22.823488674000963 29.03452495727914 0 -1 0
1713 143 1 0 2.0670003872992457 22.533736399982384 25.228974782179844 -1 0 -1
1702 142 1 0 5.551249712490925 28.017661261954476 26.66858251766904 0 -1 -1
1697 142 3 0 3.789468980058729 28.672348451599255 27.700664251192016 0 -1 -1
2632 220 3 0 1.149626392639139 25.154120416233752 22.613891441492907 0 0 -1
1704 142 1 0 4.4969123174423835 29.168620037349164 25.74880557753888 0 -1 -1
2599 217 1 0 35.63750839812571 28.592044708612605 29.310939502429264 -1 -1 0
1698 142 2 0 4.484010577975274 28.26448166129583 26.47783806109719 0 -1 -1
1703 142 1 0 3.9825421886457133 27.366308297047947 26.07611964171603 0 -1 -1
2633 220 3 0 1.5287125468518794 26.352985167881588 24.509108231166802 0 0 -1
2630 220 3 0 2.9994778516958838 24.88688776511088 23.90238509930272 0 0 -1
1696 142 3 0 4.815468756421771 27.02049765444032 28.835127230202517 0 -1 -1
2631 220 2 0 1.8198622652990943 25.42443267555711 23.57455574409735 0 0 -1
2635 220 1 0 4.762504722163586 24.55975379413681 22.980379875422468 0 0 -1
2629 220 2 0 3.730941600288038 24.217362148955225 22.906888023366804 0 0 -1
2192 183 1 0 4.566941740463274 23.289617392286342 27.028444608880775 0 -1 0
2193 183 1 0 3.633505781079996 24.329622576965537 28.055570150407572 0 -1 0
3396 283 1 0 2.5934638721179293 29.615948921863655 22.01376853869975 1 1 3
3395 283 1 0 4.141652637427153 29.615652688069765 22.97879718037583 1 1 3
2638 220 1 0 35.98967842209282 26.972096734177594 25.70588406950173 -1 0 -1
2185 183 2 0 4.5787508360928175 23.82534600906282 28.02198489442359 0 -1 0
3394 283 1 0 3.224316339551675 28.067458618784645 22.485426965228132 1 1 3
2191 183 1 0 5.492576075362473 24.44706245649635 28.149715328292835 0 -1 0
259 22 1 0 1.4097934315450544 24.241779613990296 28.84705705107491 0 -1 1
3187 266 1 0 6.549286762895289 25.321853893917243 26.42290390553269 -1 -1 0
3189 266 1 0 6.277008817211405 24.796040413402274 24.827167537156466 -1 -1 0
1695 142 2 0 4.17631313182558 28.016934026666853 28.81941600971033 0 -1 -1
2368 198 3 0 7.701944944014227 29.233825568879215 24.03036285059492 -1 -1 1
3188 266 1 0 6.360746712019419 26.59727438346622 25.25342497744073 -1 -1 0
3181 266 2 0 6.737472769799862 25.577472323545514 25.40446145209953 -1 -1 0
3182 266 3 0 8.173789107737415 25.54143609608794 25.079025258703375 -1 -1 0
3184 266 3 0 7.842825104129061 23.32162668078208 24.80814852458067 -1 -1 0
2636 220 1 0 3.6342500828909796 23.08142674049032 23.059000309377744 0 0 -1
2372 198 1 0 7.500122723171769 27.422197709820644 22.379297678122892 -1 -1 1
408 34 1 0 11.243924734949251 27.019893471213475 22.79602573838775 1 1 -2
1934 162 3 0 9.672058122144033 27.83108229867892 28.431135800691354 0 1 1
2366 198 3 0 9.121493474641943 28.777614961074274 22.371700916243743 -1 -1 1
3191 266 1 0 9.725903607803994 22.257508021489034 24.456147652426008 -1 -1 0
3190 266 1 0 11.24810438370774 22.932461625039796 25.126196155003154 -1 -1 0
2367 198 2 0 8.792702695655242 29.30374315021191 23.539630017870152 -1 -1 1
3242 271 3 0 8.41828732351762 24.444442808179645 29.049281789470154 -1 -2 -2
3243 271 2 0 9.613989663552262 23.949136332721924 28.77720773876647 -1 -2 -2
3245 271 3 0 9.505280617418682 23.103343094268126 27.795909652205232 -1 -2 -2
3252 271 1 0 11.567934455611296 22.66126549926855 27.620476688408164 -1 -2 -2
1941 162 1 0 10.619883942518037 26.90421250163884 26.98352577052702 0 1 1
1940 162 1 0 10.438826040480638 28.64991194852941 26.745091697140534 0 1 1
1935 162 2 0 8.779234970129867 28.643693083405132 28.899183823647842 0 1 1
3183 266 2 0 8.534295164883721 24.309252809506756 24.761957757254397 -1 -1 0
3192 266 1 0 10.96147658168335 23.08769775240082 23.267221394738403 -1 -1 0
1933 162 2 0 9.974421086688547 27.748902547662766 27.070145636005144 0 1 1
3359 280 1 0 14.265558739368068 24.932390101507355 24.33831250437109 1 1 -2
3350 280 3 0 13.488627592496364 24.593874476460712 28.274646640110472 1 1 -2
3186 266 2 0 10.487369900406401 23.088367128650624 24.264249549869728 -1 -1 0
3351 280 2 0 13.304955794826807 25.355832120483992 27.184623184480962 1 1 -2
3352 280 3 0 13.042010357818567 26.534069921820066 27.238134399314074 1 1 -2
3353 280 3 0 13.365139188418068 24.622303501894923 26.102833749411857 1 1 -2
3360 280 1 0 12.578517778342482 25.367521345342897 24.242332013683793 1 1 -2
3354 280 2 0 13.437294788691672 25.37712919699858 24.896994575043212 1 1 -2
420 35 1 0 15.293764464239974 23.924303403561247 23.24459426283217 -2 -1 -1
3185 266 3 0 9.847909730971741 24.30674213502586 24.416336751748606 -1 -1 0
1939 162 1 0 9.033976842964503 27.639389218259193 26.37330973721638 0 1 1
3358 280 1 0 13.689152946516465 26.439352132020485 25.226292269665237 1 1 -2
2365 198 2 0 8.166658535523014 27.93274133397397 21.693193939680384 -1 -1 1
153 13 1 0 13.400489272622904 29.478152405786485 26.88587152822322 0 0 0
3349 280 2 0 13.364826318169948 25.222332524066523 29.55779696361869 1 1 -2
3355 280 1 0 13.992524902597722 26.1503083332409 29.603954078543193 1 1 -2
2966 248 3 0 17.32663400637489 26.039497145312833 22.513212349207016 -1 -1 0
57 5 1 0 18.381229989131867 28.800637948290003 28.65144995704122 1 -1 0
2660 222 1 0 20.601150618202738 28.444734610840445 26.585066483650085 0 -1 0
2653 222 2 0 21.04356303321535 29.370051204385852 26.43248285989964 0 -1 0
2975 248 1 0 20.54741044155165 26.07768391866529 24.930030796304678 -1 -1 0
55 5 1 0 16.69043928140132 28.092420945978713 28.10875894564999 1 -1 0
2969 248 3 0 19.3843304818525 25.454054659279088 23.198481229240805 -1 -1 0
417 35 1 0 19.337060014162017 22.796634825935953 25.15138164135606 -2 -1 -1
49 5 2 0 17.260359458436394 28.832920128004268 28.728902528989337 1 -1 0
2973 248 1 0 15.347895345782295 26.242135163013288 22.005181422960366 -1 -1 0
446 38 3 0 19.9691962465751 24.409539466871887 27.695081114354863 0 0 1
2965 248 2 0 16.17554262589251 26.841680208442362 22.483424125293013 -1 -1 0
410 35 3 0 18.56084792850071 22.327433377383734 23.281052718147002 -2 -1 -1
2968 248 3 0 18.520787249735587 27.52264870691216 23.786991727283628 -1 -1 0
449 38 3 0 18.477753813937138 22.91362201246396 28.00523749134552 0 0 1
453 38 1 0 21.740326744073037 25.089067792093452 28.449185987443432 0 0 1
454 38 1 0 16.455099369155036 23.265059333247336 27.6356100090427 0 0 1
450 38 2 0 17.053515107532803 22.69215262416644 28.382694882042195 0 0 1
2970 248 2 0 20.60769338752087 25.754368921878847 23.822464157917473 -1 -1 0
2974 248 1 0 21.142626288401893 26.542784220060607 23.247711636075383 -1 -1 0
2976 248 1 0 21.17854322004542 24.83579394237186 23.821890567497594 -1 -1 0
451 38 1 0 21.091261297895986 25.942007635809198 26.997259953433307 0 0 1
445 38 2 0 20.841160813566326 25.52043619130353 28.011527312809623 0 0 1
452 38 1 0 20.292718348296994 26.288478015360436 28.670513432783217 0 0 1
447 38 2 0 19.040677660811475 23.99838559327555 28.546988628053445 0 0 1
413 35 3 0 16.594663133375537 22.652452819506948 22.27383104678895 -2 -1 -1
2967 248 2 0 18.420073393687247 26.42659946493434 23.214393589990788 -1 -1 0
2971 248 1 0 15.931045677076334 27.088698738266675 23.53446775328445 -1 -1 0
456 38 1 0 16.885404210118395 23.02201833516447 29.399799964129297 0 0 1
3789 316 1 0 21.962577821012296 23.098963567492962 26.56200393918758 2 1 2
2474 207 3 0 24.378751802787924 25.637524117963636 29.172093229876545 2 -1 -1
1253 105 3 0 27.339787131561092 23.138194907472986 23.44926192405016 -1 0 0
1259 105 1 0 26.084229688704195 22.81475699138506 25.01507557132451 -1 0 0
2654 222 3 0 22.213297530856416 29.48654430684198 27.14481684851025 0 -1 0
319 27 1 0 25.664962639375165 27.84876789041311 28.276465835157854 -1 -1 0
321 27 1 0 26.140096461339397 28.674090556061202 26.695820861436168 -1 -1 0
3641 304 3 0 23.101104101130716 27.83612482244553 24.318399369667148 -1 -1 1
3648 304 1 0 23.18526523925357 26.997829879672686 26.205826976751528 -1 -1 1
3639 304 2 0 23.71006774807015 29.000956398160156 24.259139369096875 -1 -1 1
1725 144 1 0 27.503132856942152 27.840929374835927 22.454824850252674 0 -1 1
3642 304 2 0 23.606663674149956 26.797709661608838 25.205890322957632 -1 -1 1
1254 105 2 0 26.959995445296975 23.465734538176743 24.81342223865057 -1 0 0
3646 304 1 0 23.226590970681514 25.814980549025965 24.805042924867323 -1 -1 1
1260 105 1 0 27.738799081625498 23.2228886890119 25.509459940836805 -1 0 0
1717 144 2 0 28.153699915102038 28.528998236068688 23.03393940628527 0 -1 1
2477 207 3 0 23.43712221090532 27.558081013938857 29.592259241489874 2 -1 -1
1258 105 1 0 26.63061716555321 24.495111795925165 24.74777761897455 -1 0 0
3647 304 1 0 24.698104783362716 26.88000487587545 25.17352501643446 -1 -1 1
1723 144 1 0 28.912170968225684 28.05358353182718 23.635037165250267 0 -1 1
320 27 1 0 27.288890116923955 28.45965694450491 28.04326968693685 -1 -1 0
3640 304 3 0 24.51405905517651 29.442329125475048 25.03813393108654 -1 -1 1
1724 144 1 0 27.564532146158427 29.140168235081244 23.682210550263832 0 -1 1
315 27 2 0 28.17346832579321 26.48435184816725 26.984385179007408 -1 -1 0
313 27 2 0 26.458246078321228 28.016838302400426 27.5322083797932 -1 -1 0
317 27 3 0 28.36630431205058 25.201692250840974 26.995799316575063 -1 -1 0
1075 90 1 0 29.056495381711464 28.849503885079 29.440187620865757 1 1 2
314 27 3 0 26.868791928736506 26.768040042890412 26.91637162842837 -1 -1 0
316 27 3 0 29.063827659668203 27.340758905791 27.128955844976726 -1 -1 0
1251 105 2 0 28.391825615825 23.810116132581957 22.959708092159683 -1 0 0
3784 316 3 0 23.744039620767428 23.143133477338758 24.670632685690144 2 1 2
3791 316 1 0 24.750169454168304 22.10244032128485 22.88115856243106 2 1 2
1252 105 3 0 29.126255703344704 24.442135257243688 23.676511814677003 -1 0 0
324 27 1 0 29.99220306687527 24.33722395102788 26.04071777687634 -1 -1 0
2479 207 1 0 25.965205781522407 24.59664355696973 28.590427175563253 2 -1 -1
2473 207 2 0 25.351828750568348 24.62491611085747 29.485308147274324 2 -1 -1
2413 202 2 0 32.400785470067625 22.06518920221015 26.12598372857609 -1 -1 1
1712 143 1 0 36.63052320329512 23.378003287655986 25.863044301067983 -2 0 -1
1317 110 1 0 32.06100045359635 29.33205697035095 27.084839504668718 2 -2 0
2420 202 1 0 32.170129681983944 22.58351462221793 27.034446474513917 -1 -1 1
318 27 2 0 29.768296906576715 24.847474148836966 27.0001965328734 -1 -1 0
2634 220 2 0 36.17916835782296 26.84526221404822 24.666977550481104 -1 0 -1
2415 202 2 0 32.71085698454459 23.503700311902982 24.37829907386553 -1 -1 1
322 27 1 0 30.41948373190161 25.66840895555464 27.186294704062302 -1 -1 0
323 27 1 0 29.821786777326572 24.212384001314547 27.906216766712344 -1 -1 0
2593 217 2 0 36.41817926569372 29.389536633931275 29.27460831743144 -1 -1 0
2600 217 1 0 35.97722698171887 30.14521109141016 28.654791716961032 -1 -1 0
2640 220 1 0 35.52691737326392 26.112510383486892 24.16257841415714 -1 0 -1
2416 202 3 0 33.5313120596401 24.201732160541965 24.928551699446228 -1 -1 1
2639 220 1 0 36.17556919051588 27.9214404378463 24.23303334234202 -1 0 -1
254 22 3 0 36.17958551666912 22.739715964436453 29.322228383691257 -1 -1 1
2417 202 3 0 32.54277105751697 23.439781080956358 23.026717996394723 -1 -1 1
112 10 3 0 32.2105918959403 24.438156313192984 28.80757297279835 -2 0 0
1310 110 3 0 33.99762447067874 30.03781020965385 27.213474665485844 2 -2 0
114 10 2 0 34.348560775391206 26.15174880691973 28.214740385099493 -2 0 0
2424 202 1 0 32.73021730472749 25.40328180974399 22.205212414711497 -1 -1 1
120 10 1 0 33.80132606535112 25.886008063829177 27.215098157582048 -2 0 0
119 10 1 0 35.07525561398159 25.25365540292563 28.314473905927546 -2 0 0
113 10 3 0 33.4942461337813 26.260708811214727 29.322876615714662 -2 0 0
118 10 1 0 34.913118847651056 27.02988385983683 28.130802868560174 -2 0 0
2542 212 1 0 31.870885813820767 28.871172238536182 24.220053462391423 -1 -1 1
2544 212 1 0 33.12258841169556 27.600305404919936 24.373530108392824 -1 -1 1
2543 212 1 0 31.443689701303448 27.144900385457017 23.887442164296854 -1 -1 1
2538 212 2 0 32.24832003327197 27.95854850355166 23.828340641243912 -1 -1 1
2537 212 3 0 32.59215962251349 28.05896424080219 22.394779328446926 -1 -1 1
2536 212 3 0 34.541293893830066 29.102746174261124 22.85208076437301 -1 -1 1
1320 110 1 0 36.622538019419906 31.956278003302504 24.935598152194522 2 -2 0
3047 254 1 0 7.939006178905865 33.911711548238756 24.24860290576213 1 -1 0
2601 217 1 0 1.330059668365509 29.120637743120444 28.718179512876898 0 -1 0
2880 240 1 0 1.9033846303310336 36.48727924979823 29.626071576030387 1 -1 2
1318 110 1 0 1.6160637443921362 30.39479068167317 25.08346877964415 3 -2 0
3688 308 3 0 0.8528462694991324 35.19530070770546 27.31888934397383 1 1 0
3694 308 1 0 3.796269677106977 35.055796257984056 27.899127191004336 1 1 0
3502 292 1 0 2.8158178388901707 36.15634738667932 23.414576459115477 1 0 0
3696 308 1 0 4.1263109178783655 33.364645411057516 27.332531472859607 1 1 0
3046 254 1 0 6.607896807141845 34.62825578775513 23.366183781501725 1 -1 0
3690 308 2 0 3.3825100686631835 34.144503763010135 27.488949723871862 1 1 0
3695 308 1 0 2.5746344856833083 33.71894305960477 28.12030704146858 1 1 0
1524 127 1 0 6.370361594936007 30.819435464246308 26.01511331470949 1 2 -1
691 58 1 0 6.535628684899081 35.40105168828441 25.96656616164834 2 0 -1
1521 127 1 0 4.284161788606175 32.378127004899916 21.839439235704127 1 2 -1
685 58 2 0 6.64217043791417 36.459535895893005 25.811842726699705 2 0 -1
1523 127 1 0 5.283695764591212 31.57323693209875 27.214104085772856 1 2 -1
1522 127 1 0 6.992521816777822 31.98412866046251 27.065545589962277 1 2 -1
1518 127 2 0 6.094915608828891 31.691656368195748 26.541890253013033 1 2 -1
1514 127 3 0 4.949123788040776 33.37755082682571 23.68943383338917 1 2 -1
1515 127 2 0 4.932980403593967 32.39062742633382 24.62592481144677 1 2 -1
1517 127 3 0 5.8518192288168365 32.71644655102101 25.57425076513691 1 2 -1
3686 308 3 0 1.3307381051510319 35.53022026437569 25.168519831339676 1 1 0
3689 308 3 0 2.7675969720497497 34.53716987152525 26.262182938848166 1 1 0
1519 127 1 0 3.0662954773381834 33.05453983141795 23.045285682630574 1 2 -1
3687 308 2 0 1.574998300797956 35.07738705903512 26.357220292518022 1 1 0
1516 127 3 0 4.25070243253876 31.3835619351371 24.681141594628656 1 2 -1
1513 127 2 0 4.054626942485703 33.244580844543144 22.609132769055854 1 2 -1
252 21 1 0 12.412465897641473 33.93572842787078 27.48944316037593 0 0 0
72 6 1 0 13.44021238827599 34.41753631277164 24.20397401403409 0 -1 -1
147 13 2 0 14.320262230363635 31.103111815852255 24.75169176789007 0 0 0
71 6 1 0 12.157763585619874 33.877531860589954 22.927420873345103 0 -1 -1
251 21 1 0 10.972967926554311 34.657645147655884 26.697764482346322 0 0 0
149 13 3 0 14.769768205414321 32.23216554908829 24.261669792402845 0 0 0
66 6 2 0 12.45096637905825 34.57447443048142 23.71473152978422 0 -1 -1
146 13 3 0 13.343092523287009 31.366660160939368 25.73212311976109 0 0 0
1936 162 3 0 8.20948528781678 29.49270652256041 28.190086967824037 0 1 1
250 21 1 0 11.503563064612747 33.08126505697056 26.194209914551987 0 0 0
244 21 3 0 10.231566842665327 34.95781872110304 29.25120833993959 0 0 0
2374 198 1 0 8.893391201283801 31.653413507307558 24.43407821255886 -1 -1 1
145 13 2 0 12.784892217616676 30.180049958076612 26.37925454437385 0 0 0
3042 254 2 0 7.631117626528158 34.46833849827119 23.373363009847637 1 -1 0
148 13 3 0 14.712730039633383 30.01795042405294 24.447236332613574 0 0 0
3040 254 3 0 9.977712920091395 33.00840383075552 22.82097109592266 1 -1 0
243 21 2 0 9.968092927321221 33.83308650300599 28.967526442008694 0 0 0
3048 254 1 0 8.251091785763176 35.3697116811698 23.359941239483504 1 -1 0
151 13 1 0 12.03724252266212 30.512560761893454 27.082872102205233 0 0 0
2369 198 3 0 9.897309449788883 29.852258469578565 24.08093682283203 -1 -1 1
2376 198 1 0 10.416321642128487 31.469061561216424 25.19715514267484 -1 -1 1
2370 198 2 0 9.544887236516761 30.982945260720612 24.927327069150902 -1 -1 1
70 6 1 0 11.68864681539754 34.455826524462736 24.493302494591795 0 -1 -1
65 6 3 0 12.481985330514762 35.804946633178986 23.101289960969876 0 -1 -1
152 13 1 0 12.352809870576033 29.515233130107415 25.63770705972695 0 0 0
736 62 3 0 14.10052855091532 35.894686792328734 27.763826196182933 -1 -1 0
2375 198 1 0 9.066229274638037 30.685527709629103 25.898113060185526 -1 -1 1
245 21 3 0 10.414718450604068 33.1024586649177 27.962703832522312 0 0 0
246 21 2 0 11.383134476012408 33.69607167356733 27.080626727095677 0 0 0
2783 232 1 0 14.776415633579854 32.69954220904143 27.89994072603992 2 0 0
2784 232 1 0 15.083410376541723 31.07728352209001 28.50004869960129 2 0 0
2659 222 1 0 21.133461954638406 29.598274271282634 25.38382368262126 0 -1 0
742 62 1 0 16.91420230024363 36.6167810491092 28.272186897153475 -1 -1 0
3341 279 3 0 21.623023386239073 35.70145101755883 28.61754924041629 0 -1 0
3348 279 1 0 19.70228595727029 34.78571811336681 28.867248958966208 0 -1 0
1862 156 3 0 15.306691824479914 36.545879166460466 24.68420419973602 0 0 1
150 13 2 0 15.784060930295428 32.21487486060464 23.230527765791713 0 0 0
3741 312 1 0 20.671142357525866 36.49740763537569 23.902515905467773 1 -1 1
154 13 1 0 15.73473883889668 33.22512397735871 22.83086183504473 0 0 0
25 3 2 0 19.79557460604094 30.74346592424427 22.154621567500858 -1 0 0
155 13 1 0 16.785070740384306 32.06586545975312 23.675632336077456 0 0 0
156 13 1 0 15.543502831660843 31.465863947153597 22.419505373893873 0 0 0
28 3 3 0 20.17463933400247 33.45746126574086 22.187801716717264 -1 0 0
3347 279 1 0 19.924224158299015 35.88084095014031 27.388401368501054 0 -1 0
1867 156 1 0 16.495590741056986 34.8235183948499 24.57587564691869 0 0 1
3342 279 2 0 20.13305544927806 35.739083855023225 28.46675688245884 0 -1 0
32 3 1 0 19.463238831258174 29.75436563273215 21.842968086798837 -1 0 0
31 3 1 0 19.10146515424905 31.133523223736617 22.927340651532937 -1 0 0
1869 156 1 0 15.260219569317044 34.89542120033214 25.85498683233664 0 0 1
33 3 1 0 20.726326616876275 30.72063409697981 22.68943055539303 -1 0 0
1861 156 2 0 16.023531507369228 35.45194384456053 25.296397506896565 0 0 1
1868 156 1 0 16.792506409297474 35.90599056043238 26.002623778844974 0 0 1
2661 222 1 0 20.235267589459628 30.127973759326498 26.784475217962193 0 -1 0
2782 232 1 0 16.125847745953138 32.40604233500401 29.032590435722767 2 0 0
2779 232 1 0 20.10801166555629 32.970215406028345 25.982922673780458 2 0 0
2778 232 2 0 15.567559043598768 32.01834696297055 28.19374406091686 2 0 0
2774 232 3 0 18.15088895473936 32.283608939708756 25.790262317739092 2 0 0
2781 232 1 0 18.986336209246097 34.19761734706749 25.5559889860992 2 0 0
2773 232 2 0 19.20820579208183 33.15360651607253 25.381264839908052 2 0 0
2780 232 1 0 19.265877679987774 33.011467431141575 24.244434716854133 2 0 0
2775 232 2 0 17.567923673069856 32.56100788144869 26.936582132767278 2 0 0
2777 232 3 0 16.531852515509527 31.759292631051448 27.11146505121787 2 0 0
56 5 1 0 17.06038128974137 29.83307026141028 28.296230974901512 1 -1 0
2776 232 3 0 17.87531813399616 33.4065286728239 27.742649935643296 2 0 0
2010 168 2 0 28.545797531263446 31.214026486280208 26.13803142465162 -1 0 0
3217 269 2 0 23.4403458714406 34.60881281379116 24.417127093660493 -1 -1 0
2015 168 1 0 27.817006628221517 31.49998259809275 25.364704013134578 -1 0 0
3225 269 1 0 23.417663472974095 33.73631970435978 25.02464445433978 -1 -1 0
3224 269 1 0 22.56336625413346 34.720388159707746 23.80527212619433 -1 -1 0
3638 304 3 0 23.167565080884163 29.633792721154304 23.19726777453031 -1 -1 1
3644 304 1 0 23.618180170905358 31.545865502903688 23.735589631755282 -1 -1 1
3338 279 3 0 23.340915378400574 35.62599531407854 30.010309497667002 0 -1 0
3218 269 3 0 24.63410439597745 34.52546558582741 23.621580354833437 -1 -1 0
3223 269 1 0 23.534969122651393 35.50876996595313 24.978550235551964 -1 -1 0
2656 222 3 0 22.737541400525163 31.406529623412066 26.171214912173788 0 -1 0
3645 304 1 0 24.82202460454664 30.844534229399944 22.830365614526457 -1 -1 1
3637 304 2 0 23.71744190784754 30.874317909963075 22.87645137206669 -1 -1 1
2009 168 3 0 27.968600535972165 31.44402217184873 27.460463833881317 -1 0 0
2655 222 2 0 22.96315342157588 30.580078757797185 26.96563615557617 0 -1 0
1364 114 1 0 28.825979025687367 36.58606509066444 24.719518005263946 -1 0 2
1719 144 2 0 29.681174353843435 30.154855352122123 22.628495234560436 0 -1 1
3220 269 3 0 25.91598649759552 33.686688859598135 25.304066914400103 -1 -1 0
1365 114 1 0 28.732801055736044 1.7542835425983863 26.105815495372145 -1 1 2
3227 269 1 0 28.75754303610311 34.237468795687086 23.422426913514457 -1 -1 0
2657 222 3 0 23.855267727302525 30.600489663697566 27.934065155170213 0 -1 0
2006 168 3 0 27.91047310382615 32.7318531771841 29.20837089877299 -1 0 0
3219 269 2 0 25.790756024875975 34.18195457810603 24.197184498122446 -1 -1 0
2008 168 3 0 28.85471155149174 33.483796218574135 27.332423390880972 -1 0 0
2007 168 2 0 28.263152716576123 32.624734636920294 27.950981962261583 -1 0 0
2013 168 1 0 27.61422649166068 34.807025970415296 29.26085039404254 -1 0 0
2663 222 1 0 23.93251349941248 32.6955302416666 28.03641905607715 0 -1 0
2664 222 1 0 24.6521553631999 31.92409119520766 29.34289895588799 0 -1 0
2658 222 2 0 24.602919741302255 31.863927257866646 28.288884445922466 0 -1 0
3228 269 1 0 27.808321619066287 32.94716740449275 24.113034584365227 -1 -1 0
3221 269 3 0 26.699453781183728 34.41201102771785 23.27282799141382 -1 -1 0
3222 269 2 0 27.898756391709608 33.60234667789943 23.266252201670085 -1 -1 0
3226 269 1 0 27.94514606862013 33.03881869203077 22.267121691925833 -1 -1 0
2662 222 1 0 25.501224868495648 31.760686236767725 27.7116699100492 0 -1 0
2016 168 1 0 29.448940458351608 31.827040622711312 26.01645729339625 -1 0 0
2014 168 1 0 28.796049770899163 30.153758417780278 26.193658939216213 -1 0 0
2504 209 1 0 34.391640354098804 36.34188345061548 28.753178155629982 -1 1 -1
2837 237 3 0 33.29392863252167 35.444702005066695 23.219583860654083 1 0 1
2497 209 2 0 33.815508936730495 35.43409468013845 28.601724851131788 -1 1 -1
2836 237 3 0 31.138695069255036 35.234973353614166 23.929958953497966 1 0 1
2500 209 3 0 33.3220762526653 32.74696627394313 29.269573220128095 -1 1 -1
1316 110 1 0 32.21194251275292 30.96426744122768 26.681868675586728 2 -2 0
1314 110 2 0 36.62151507393446 30.882363338100646 24.913716768961887 2 -2 0
1727 144 1 0 31.089468844009723 32.62144402573375 22.601254347912562 0 -1 1
3693 308 1 0 35.9982815163893 35.95860263172557 23.692093463336125 0 1 0
2835 237 2 0 32.29321630950186 34.95552568096142 23.998244402523454 1 0 1
2834 237 3 0 32.84703315501104 34.022958726508186 24.852876631938976 1 0 1
2840 237 1 0 31.200600029816798 34.22062746761687 26.12197879746903 1 0 1
1315 110 1 0 32.42947446585082 30.479731897828678 28.473874660721496 2 -2 0
1312 110 3 0 33.923194566405016 30.985020504583076 25.091995723150873 2 -2 0
1311 110 2 0 34.492613230377266 30.467929324097675 25.989986033041703 2 -2 0
2833 237 2 0 31.89332755630977 33.45701143569625 25.760789379339194 1 0 1
1309 110 2 0 32.57969812360368 30.180754760407606 27.390981445887505 2 -2 0
1313 110 3 0 35.81633661603532 30.31313896328179 26.029259127113264 2 -2 0
3691 308 1 0 35.31762124447652 34.94776281980275 25.01701634718972 0 1 0
3685 308 2 0 35.94767782517755 35.84505445915353 24.772924282420004 0 1 0
2503 209 1 0 32.95263058825871 35.64751099884824 27.99124919168873 -1 1 -1
2899 242 1 0 34.563425182741305 32.67984825450037 22.878766938733285 -1 -1 -1
1720 144 3 0 30.182963688166353 30.097549346955002 23.71943185575372 0 -1 1
1319 110 1 0 36.19494801478078 30.529795815181977 23.97117719341705 2 -2 0
2839 237 1 0 32.39434408443875 33.04370375394653 26.604877263843424 1 0 1
2841 237 1 0 31.159663430280272 32.75736185745011 25.34677139770759 1 0 1
2505 209 1 0 34.46914169736688 34.76667506662263 27.99639257563596 -1 1 -1
3508 293 3 0 0.8632459017549295 3.1513646918320624 34.97385378076686 0 1 1
1060 89 3 0 3.6004680293158966 5.2542527497893525 30.167087987753945 3 1 -1
1059 89 2 0 4.677533966668826 5.10093934018446 30.67790313371769 3 1 -1
1061 89 3 0 5.051703720263559 5.420525634967254 31.92905087745875 3 1 -1
3505 293 2 0 1.4387390457405123 3.165092018570131 32.13427743130762 0 1 1
1058 89 3 0 5.70269354414002 4.49016847826188 30.102769008319456 3 1 -1
839 70 1 0 1.8919678730243905 7.842431261597132 34.03608667114714 2 -1 0
834 70 2 0 1.0141469017705769 7.268305900318126 34.38091006401538 2 -1 0
442 37 1 0 8.082188217915771 8.601598750878427 31.78966707079232 1 -2 -1
444 37 1 0 7.593800324589238 6.963126705273007 31.397225231703686 1 -2 -1
438 37 2 0 7.316090064450188 7.823179843349989 32.05409162274094 1 -2 -1
1856 155 1 0 5.009704210378637 5.2452895609575325 0.9312643429874042 2 0 0
1849 155 2 0 4.052930763224074 5.017416896246626 36.468542189255764 2 0 -1
1855 155 1 0 3.592908668210568 5.917667101887991 36.10644583318932 2 0 -1
1857 155 1 0 4.116570875834955 4.190226016404727 35.747253367995654 2 0 -1
996 83 1 0 1.58795970747743 36.50591475755229 34.76053336911701 1 1 1
2876 240 1 0 5.849085192262428 36.647023840949345 34.216899889632224 1 -1 2
2875 240 1 0 5.957131261810493 1.565487805221158 32.60103465869096 1 0 2
3511 293 1 0 0.85567551419772 2.3218794564553646 31.7379128858006 0 1 1
3513 293 1 0 2.2258914724246517 2.837619584934409 32.798234696355465 0 1 1
1068 89 1 0 4.281306498398782 6.480843394190671 33.56294770793464 3 1 -1
3512 293 1 0 1.8018289089853798 3.777260786031368 31.317268019098965 0 1 1
1062 89 2 0 3.9667815172415457 5.685292655765576 32.831858440352434 3 1 -1
1067 89 1 0 3.762958415016221 4.749905758865261 33.405377824338174 3 1 -1
1066 89 1 0 3.088317410725557 6.022650354131476 32.27461825211075 3 1 -1
2704 226 3 0 7.533900675176171 6.2299685784828105 34.81654608099441 1 0 -1
2711 226 1 0 6.700952065292189 3.3806255978712003 33.94695744783801 1 0 -1
2706 226 2 0 7.7328461081896585 3.573286414149156 34.251246448799684 1 0 -1
2712 226 1 0 8.356180643461904 4.103179824884088 33.52757698625663 1 0 -1
2703 226 2 0 7.783942861616161 5.440508140218483 35.70664579784612 1 0 -1
2710 226 1 0 8.31965032347427 2.671238302181982 34.36814923250208 1 0 -1
80 7 1 0 9.393674768126495 4.761801720946436 30.140655446951687 1 -1 0
83 7 1 0 9.88403947920574 6.423621475689317 34.53256733592802 1 -1 0
2926 244 1 0 8.042583701039424 1.7783032654332134 30.416345365628363 0 0 0
2708 226 1 0 7.705020559566773 7.7998709938074455 36.5774586294399 1 0 -1
84 7 1 0 11.715452894930813 6.600362045124955 34.43451242951729 1 -1 0
76 7 3 0 10.927767957517236 5.023091073796076 32.50945239235991 1 -1 0
2978 249 3 0 14.614493301380477 7.483732271226476 31.37745947848527 2 0 1
79 7 1 0 11.241710344625078 4.883761152755658 29.719166340630323 1 -1 0
2988 249 1 0 14.152699127210125 3.6308173348287247 30.90518942353301 2 0 1
2986 249 1 0 13.171551794075366 4.2560875528147015 32.237050893694814 2 0 1
75 7 2 0 10.730469164462724 6.178618090637704 32.122797733407786 1 -1 0
2705 226 3 0 7.883264562267211 4.0998136402205825 35.53742358903217 1 0 -1
74 7 3 0 10.37217923448657 6.487134859374903 30.835985101256522 1 -1 0
77 7 3 0 10.64983617709852 7.269479698831544 32.85048750120583 1 -1 0
78 7 2 0 10.743855336757084 7.058583910370849 34.29104257656545 1 -1 0
2702 226 3 0 8.163192143024862 5.760178070515519 0.9874371199899007 1 0 0
2979 249 2 0 13.82989562036889 6.504736122471815 31.827031348108022 2 0 1
1660 139 3 0 11.760743301920776 1.6537749822080061 36.189538084141255 1 -1 0
2981 249 3 0 13.6402698994697 5.66018199044502 30.78584962732633 2 0 1
2980 249 3 0 13.476704437482061 6.429977474808903 32.96847214268953 2 0 1
1662 139 2 0 12.890861968138612 3.764636542483478 35.03053548462044 1 -1 0
2918 244 3 0 11.613306718117006 1.590611598801729 31.377800541220385 0 0 0
2987 249 1 0 12.401755731029695 3.918442961570206 30.72674430642256 2 0 1
73 7 2 0 10.229627088455697 5.493058491128811 29.864333561112225 1 -1 0
1666 139 1 0 11.902714346566455 3.5047473277521797 34.81817832753762 1 -1 0
2982 249 2 0 13.314841671009333 4.289371844244894 31.179997698484623 2 0 1
1668 139 1 0 13.510254969829573 3.2522976550508615 34.302936467099634 1 -1 0
1667 139 1 0 13.009058397333504 4.839317197225206 34.90012139472811 1 -1 0
1661 139 3 0 13.248859772328574 3.370494108865815 36.35403363825921 1 -1 0
2924 244 1 0 12.078272993529858 1.2521576073464022 33.35315401553372 0 0 0
2927 244 1 0 8.510054177695418 3.185726210975558 29.25111677754137 0 0 0
2921 244 3 0 10.082478305995682 1.9596808203802911 29.951640441272314 0 0 0
2922 244 2 0 8.690039770206072 2.115545450579064 29.561587424242745 0 0 0
2919 244 2 0 10.319002893142672 1.4930518908317243 31.147494258091502 0 0 0
2920 244 3 0 9.533123136357792 0.9921764420397627 31.961404584166687 0 0 0
908 76 1 0 16.683038346263206 7.032565754542227 35.233248620823815 -2 2 2
1133 95 3 0 17.65141439845486 5.375973085745732 29.726679747511792 -1 0 1
2515 210 1 0 17.13681033722187 1.4914511616725692 32.326453042950824 1 0 0
902 76 3 0 16.030743441986353 5.602324711309374 0.7280877765374427 -2 2 3
2100 175 1 0 21.892946377875965 1.1916383917546463 34.1365937653975 -1 1 -3
144 12 1 0 18.536129134872276 6.56059557470555 32.013536553156996 0 -2 -3
2517 210 1 0 17.36928716273938 3.372422659346202 32.43750841765085 1 0 0
2509 210 2 0 16.69302013206548 2.4851458992420774 32.59955920116975 1 0 0
2516 210 1 0 15.756876121866453 2.5936665011362225 32.042961789676205 1 0 0
2092 175 3 0 19.94847068572417 2.86620006574184 31.30194792020482 -1 1 -3
2099 175 1 0 21.010817506690273 36.49730385019933 32.601334062245115 -1 0 -3
2511 210 2 0 16.903185301006733 2.188659626852864 34.991714799512415 1 0 0
909 76 1 0 17.83848203372008 5.694363551443106 35.70841837109104 -2 2 2
2097 175 1 0 21.92082218822075 5.933967918787741 30.163267727713635 -1 1 -3
284 24 1 0 19.82641192914048 36.529307054216176 1.4050442722476928 0 -1 1
1138 95 1 0 18.096253222481675 3.3762536624300163 29.710688065716838 -1 0 1
2098 175 1 0 20.142386253871422 1.679982095095358 33.86836206375351 -1 1 -3
2512 210 3 0 18.046813705953607 1.7942768705206984 34.95962169839969 1 0 0
2094 175 2 0 21.089959790033568 1.3484202328679893 33.364555445770506 -1 1 -3
2510 210 3 0 16.210588335425967 2.7313948952619365 33.96522764211865 1 0 0
907 76 1 0 16.43842053670684 5.310910472524613 34.69936844968396 -2 2 2
142 12 1 0 19.53977669950411 7.999405405100214 31.399182034717782 0 -2 -3
143 12 1 0 20.23480770156323 6.849789500367216 32.746573536376495 0 -2 -3
138 12 2 0 19.339525831860247 7.303981845102317 32.28380139984237 0 -2 -3
737 62 3 0 15.180732232054432 1.1207675875629806 29.429007717179385 -1 0 0
1130 95 3 0 17.47066242166911 7.517044970818684 29.87365958642559 -1 0 1
137 12 3 0 18.644729687794637 8.162367064610459 33.201132197962316 0 -2 -3
901 76 2 0 16.83447719941108 5.986637635589631 35.51034972267143 -2 2 2
2090 175 3 0 21.77463428058227 4.272648896628992 31.334821213358705 -1 1 -3
2093 175 3 0 21.679825061879765 2.5435793164171985 32.65796232773593 -1 1 -3
2096 175 1 0 20.20963110689531 5.270599914565028 30.3206125399254 -1 1 -3
2091 175 2 0 21.04241067670662 3.1583086947733783 31.714186859896518 -1 1 -3
2089 175 2 0 21.30992401619538 5.03256207350695 30.2631899863851 -1 1 -3
648 54 1 0 19.76278292525606 7.758143930983003 36.20495046320367 -1 1 -1
2513 210 3 0 16.088738822594372 2.165673020689648 36.04731260023708 1 0 0
1922 161 3 0 23.11722543206944 7.82671588001786 33.74293668371822 -1 0 1
1921 161 2 0 22.722394076218066 6.434239758178502 33.73719953416792 -1 0 1
1796 150 1 0 25.395959811577267 5.210956180421824 29.470287938996627 -1 0 -1
1789 150 2 0 25.342240143545787 4.518817862722411 30.30657805241283 -1 0 -1
574 48 1 0 25.82755831899613 1.5158165435164361 35.60431696310975 0 1 1
1797 150 1 0 24.93775069406725 3.500298127464746 30.203484710727633 -1 0 -1
570 48 2 0 25.07549007559229 1.3675801544093682 34.84139685226564 0 1 1
576 48 1 0 24.568209296178402 2.340095680645635 34.70320300475963 0 1 1
1924 161 3 0 23.153815636396246 7.889966336994387 31.467850379925558 -1 0 1
1928 161 1 0 21.967311294818597 6.358031211750641 34.49319938951888 -1 0 1
1793 150 3 0 28.321758365288247 3.57285428049651 31.880657737211056 -1 0 -1
1382 116 3 0 28.60531770856096 7.510791157626337 31.984556821158964 -2 0 1
1929 161 1 0 22.339066116081412 6.057976559578953 32.80069658507084 -1 0 1
3344 279 1 0 23.995909826974465 1.1511896717620533 31.421681154325178 0 0 0
1790 150 3 0 26.611402635656223 4.573039317427941 31.007953567323746 -1 0 -1
1798 150 1 0 28.303889465716424 2.393149842571587 33.65648300391183 -1 0 -1
2758 230 1 0 26.07608196513157 4.9201803517824 36.13058600752191 1 -1 -1
1799 150 1 0 29.058046265030523 1.6150327864389782 32.26366465012642 -1 0 -1
1792 150 3 0 26.463724150596466 2.3344932199665376 31.44533743545488 -1 0 -1
1791 150 2 0 27.05440627009907 3.4159622225198136 31.475550503540106 -1 0 -1
1794 150 2 0 28.87597526679436 2.6131629604524167 32.764124242188444 -1 0 -1
1927 161 1 0 23.544514809637395 5.749268628345781 34.23539004909564 -1 0 1
2754 230 2 0 26.671505396159 5.822358523448103 36.446083922251326 1 -1 -1
1795 150 1 0 24.63402156801062 5.102984278509633 31.01454853348752 -1 0 -1
2760 230 1 0 27.718839735986542 5.535122074460064 36.245190799179476 1 -1 -1
1381 116 2 0 27.346345363506888 7.348190417253925 32.574131396747276 -2 0 1
1389 116 1 0 27.282819709039153 6.4246032410018925 33.06244946198384 -2 0 1
802 67 1 0 28.46358988045468 0.8344062644073428 1.261018896624579 -1 0 -1
288 24 1 0 23.20496851953586 5.260009677160688 36.526117666312004 0 0 0
2759 230 1 0 26.460504130787662 6.766638473044291 35.89996609549227 1 -1 -1
3506 293 3 0 36.50184442318753 4.102143385926269 32.870957647657036 -1 1 1
840 70 1 0 1.3644655875545788 6.471420334372443 35.140919667593884 2 -1 0
3515 293 1 0 33.67852406588087 3.833437749901627 35.83013869076994 -1 1 1
228 19 1 0 29.884115185395714 5.865054885630594 36.522902780448256 -2 -1 -3
1386 116 2 0 31.910463954739473 6.570292525485569 32.576979179979936 -2 0 1
3509 293 3 0 35.071236855823024 4.447687625268392 34.431313184418734 -1 1 1
2044 171 3 0 32.92037008802052 3.979317395221165 29.976465417039392 -1 2 1
2051 171 1 0 33.730762244983794 2.933568962119094 32.02106254473236 -1 2 1
1385 116 3 0 30.62264896153447 6.713020019424271 31.91764406797627 -2 0 1
1383 116 2 0 29.61791936032708 6.9863030183742945 32.67719229947975 -2 0 1
2042 171 3 0 30.810192115053827 3.21234224659968 29.628675431862856 -1 2 1
832 70 3 0 34.2809030564976 7.505362339509544 34.2895545613315 1 -1 0
1390 116 1 0 31.90015277046431 5.579911758277744 33.15928433322502 -2 0 1
2043 171 2 0 31.98750748368392 3.2581891202978666 30.22880412955267 -1 2 1
1391 116 1 0 32.6374069517249 6.506297829891716 31.725499410779207 -2 0 1
1392 116 1 0 32.09316265319854 7.47885616148697 33.151482385000314 -2 0 1
2052 171 1 0 32.95831468119585 1.6045859024356017 32.860120592327185 -1 2 1
2046 171 2 0 33.22839235453874 2.021176111690204 31.848983460307156 -1 2 1
3507 293 2 0 36.21360021257699 3.804721598455352 34.1442355756837 -1 1 1
2045 171 3 0 31.979003986100576 2.2867283057672565 31.236799136884034 -1 2 1
838 70 1 0 36.44149551297092 6.729318611790291 33.563634799230925 1 -1 0
801 67 1 0 34.314460366731836 1.4732982479510608 36.14842209773705 -1 0 -2
226 19 1 0 31.532466769341998 6.552056885293415 36.194583674793 -2 -1 -3
1384 116 3 0 29.58175418141869 6.746742926814413 33.8636686810584 -2 0 1
1800 150 1 0 29.791586661890754 3.1154164123643002 33.10156879345615 -1 0 -1
3514 293 1 0 34.12721580957726 5.469765425054131 35.86286388795933 -1 1 1
3001 251 2 0 33.53178279754931 7.873989991197858 29.542146796294524 0 1 -1
3516 293 1 0 35.28522719198708 4.347763078023423 36.50812312233083 -1 1 1
3009 251 1 0 33.89582687523851 7.533973982790421 30.549278653217147 0 1 -1
3510 293 2 0 34.54622998070806 4.481651967515778 35.75431605592126 -1 1 1
2050 171 1 0 33.781579756718145 1.2242548362377217 31.281607130733452 -1 2 1
3068 256 1 0 36.47786685935624 3.722683443679314 29.793174010659964 1 1 0
3472 290 3 0 36.424878812472116 12.277172061109423 34.4905911451083 -2 -1 0
1239 104 2 0 6.861322437589556 15.123090525899094 34.2697411392549 2 2 0
3469 290 2 0 1.5298964992248278 14.606095163776812 33.46281420930715 -1 -1 0
3473 290 3 0 1.368230122176976 12.810597272234725 36.51709184639534 -1 -1 0
439 37 1 0 2.828144733282676 10.95538927369742 31.149978158608572 1 -2 -1
3471 290 2 0 1.167751571178755 12.99140852369274 35.19011357286989 -1 -1 0
1241 104 3 0 6.3923284042098825 14.191986313861253 35.13674020436146 2 2 0
1670 140 3 0 2.9684666622211306 14.757297512343028 30.2150966770945 0 1 0
1246 104 1 0 4.652898251991228 13.836354589625806 33.811584099571014 2 2 0
436 37 3 0 5.9026656247221085 9.923761201011816 32.91792602309913 1 -2 -1
435 37 2 0 5.416383675116174 9.273096342452398 32.0218784721915 1 -2 -1
434 37 3 0 4.270781801120013 9.449542953956197 31.396213296556045 1 -2 -1
437 37 3 0 5.989340157000782 8.185686693704477 31.572245923780713 1 -2 -1
1512 126 1 0 5.373781225241791 9.901284299429113 35.86958374561417 -1 -1 0
1248 104 1 0 4.698993873637171 12.951911146095686 35.37738140777331 2 2 0
1247 104 1 0 5.726425429397551 12.561865116845636 34.0846718949549 2 2 0
1242 104 2 0 5.319280950042642 13.380668798097625 34.593878931070066 2 2 0
441 37 1 0 3.985300179051248 11.3501460931144 32.4594160975254 1 -2 -1
433 37 2 0 3.4203610469739814 10.546973410373468 31.921556129348044 1 -2 -1
440 37 1 0 2.692785237176363 10.051159244070966 32.66576506257896 1 -2 -1
3470 290 3 0 1.749522502259485 14.108857766524 34.84477738146297 -1 -1 0
1505 126 3 0 3.8191399003442292 8.726009329425645 36.577861629178194 -1 -1 0
2440 204 3 0 7.37616072017213 9.910907542323658 29.60871856273495 2 0 -1
1295 108 1 0 7.445882367279981 11.45366098347036 35.92128639209928 0 -1 0
1294 108 1 0 7.885156894103169 13.103011852568086 36.415709100250325 0 -1 0
3475 290 1 0 2.284813542438675 14.102163800276434 32.82444029686602 -1 -1 0
1511 126 1 0 3.7266927307092343 10.00237400919604 35.078316262583364 -1 -1 0
1506 126 2 0 4.482991672626259 9.39892999654062 35.50468218475645 -1 -1 0
1510 126 1 0 4.8178238881954245 8.593820835775226 34.75944716335591 -1 -1 0
1179 99 2 0 0.7815738951351421 9.172775772345165 30.11588635769327 -1 1 0
2446 204 1 0 9.868533155929255 10.206442710423236 29.664730150567877 2 0 -1
1612 135 3 0 10.972216246133252 11.906809058378533 30.085985497327364 1 -1 1
1618 135 1 0 13.261403859346684 12.914393787016271 30.099575888955577 1 -1 1
1614 135 2 0 13.017188140477852 13.449501272328042 29.154710660870684 1 -1 1
443 37 1 0 7.1865167004446935 7.650901452788801 33.049942094560244 1 -2 -1
1289 108 3 0 9.328611143353157 12.12730564342426 35.49051987996199 0 -1 0
1290 108 2 0 8.21199784238319 12.041203353703056 36.36001108601388 0 -1 0
3210 268 2 0 11.063718106692223 15.029168923072481 36.13305837444865 -1 1 0
1617 135 1 0 7.9071691064157665 12.817044378615801 30.276854404314424 1 -1 1
1286 108 3 0 10.928784459290561 11.500077343146986 34.19430955321763 0 -1 0
1292 108 1 0 12.139233015624434 9.918417631888413 33.44255934308956 0 -1 0
1293 108 1 0 10.525205553648906 10.190482706167877 32.59512196796088 0 -1 0
1285 108 2 0 11.418073363873965 10.655182185082758 33.10402005885723 0 -1 0
1616 135 1 0 8.141428394789788 13.832408572843706 31.67890776111749 1 -1 1
1291 108 1 0 11.879473648078882 11.263781290716233 32.32088809987537 0 -1 0
1279 107 1 0 14.315772049270425 13.134146751351542 35.49030425742417 1 1 0
1611 135 2 0 10.807930579172771 13.082169171280723 29.85488211159712 1 -1 1
1613 135 3 0 11.666908938666895 13.86234179457755 29.195311005779974 1 -1 1
1610 135 3 0 9.69107106970777 13.830472042153627 30.166423219381336 1 -1 1
1609 135 2 0 8.677286769579366 13.11746037706921 30.94020830120377 1 -1 1
2984 249 1 0 15.136054416867907 9.475252984757297 31.90541673194597 2 0 1
2977 249 2 0 15.120531861608931 8.447900189254609 32.34666306023796 2 0 1
1615 135 1 0 9.12609965192427 12.292999541359196 31.485238376937936 1 -1 1
2985 249 1 0 14.405745457263105 8.487807294861463 33.196770631371415 2 0 1
1287 108 2 0 9.829663027049483 11.097244068271104 34.904306028845724 0 -1 0
1288 108 3 0 9.48248284628281 9.916550009947994 34.933389663199 0 -1 0
3216 268 1 0 10.0592185169309 14.598390530461776 35.99997209627375 -1 1 0
1280 107 1 0 13.483818879678903 14.040049117120804 34.17019350635944 1 1 0
1281 107 1 0 12.756255205220503 12.521856352726768 34.83686591270578 1 1 0
1273 107 2 0 13.670672899721405 13.068884316926264 34.594007451642916 1 1 0
3986 333 3 0 14.439591339118161 9.004762739701237 36.42221945303674 1 0 -2
1274 107 3 0 14.292707330752451 12.228269224257561 33.63893221037517 1 1 0
82 7 1 0 10.7289518338524 8.032670508628044 34.74929206815224 1 -1 0
1093 92 2 0 17.250021100669038 14.729904343136665 35.70078036598411 1 1 0
1101 92 1 0 16.798499556318383 15.688012232836789 35.27164536617984 1 1 0
1095 92 2 0 19.527874211948667 14.860558494213771 36.14574186630422 1 1 0
2983 249 1 0 16.126702994601978 8.07679117137249 32.671739119029056 2 0 1
141 12 1 0 19.05944047270816 11.849937207802022 33.714004743175394 0 -2 -3
641 54 3 0 21.658566111103596 7.994188842093456 36.461584803030135 -1 1 -1
1096 92 3 0 19.926014691303024 14.24032323146058 35.2033126918285 1 1 0
2670 223 2 0 20.067892496748637 10.971001115722064 29.49943976790178 2 1 -1
2674 223 1 0 19.599760987798955 11.275270321302978 30.439221663882172 2 1 -1
2675 223 1 0 20.97049398028308 11.572047799042938 29.50376959641564 2 1 -1
1129 95 2 0 17.239731311856417 8.746865671366807 29.133029767676156 -1 0 1
1099 92 1 0 17.533535515463676 13.941177464174471 34.967365469788625 1 1 0
3985 333 2 0 15.42803563425897 9.947032803617796 0.8658746744645567 1 0 -1
1137 95 1 0 17.221868197502637 9.500967055194131 29.887373380519346 -1 0 1
3991 333 1 0 15.150884571843202 10.884104525341966 36.30581417323673 1 0 -2
1284 107 1 0 16.698782186494654 11.478805948843354 30.257607836664313 1 1 0
1278 107 2 0 16.57866543233474 12.421886806794946 30.8603788055336 1 1 0
1277 107 3 0 15.552356003330292 12.003270217827987 31.849042235155203 1 1 0
135 12 2 0 19.34601540400795 9.320417946882104 33.484571835767134 0 -2 -3
1283 107 1 0 17.46291563150474 12.783994715687532 31.411885176047505 1 1 0
2105 176 3 0 19.794847022427447 14.650464800437133 29.986105331581058 1 0 -2
1282 107 1 0 16.236761328797797 13.257043972190619 30.232803499211105 1 1 0
136 12 3 0 20.367332943899974 9.708072308075952 32.94686159420626 0 -2 -3
1275 107 2 0 15.338652383238589 12.76214489946837 32.94890886483129 1 1 0
1276 107 3 0 15.86214169957237 13.79873541833919 33.16265598100488 1 1 0
140 12 1 0 20.42128762241267 11.203483396927378 34.74809026648174 0 -2 -3
139 12 1 0 18.917490517732134 11.773356213301344 35.532845390563686 0 -2 -3
133 12 2 0 19.32233416845947 11.293750323118141 34.61682292814721 0 -2 -3
134 12 3 0 18.717438507569554 9.989414816589013 34.4274182255884 0 -2 -3
3993 333 1 0 16.37913038380271 9.631242203782453 36.397179179346324 1 0 -2
1324 111 3 0 21.920287661920636 11.348896672034943 1.0346832757048219 -3 0 0
1100 92 1 0 16.469453716244505 14.345264942472165 36.325921919800976 1 1 0
1387 116 1 0 27.07135061915763 8.119173742245609 33.32253457536425 -2 0 1
1191 100 2 0 29.049668361788292 10.635993132244527 36.13701553387202 -2 -1 0
1194 100 2 0 29.10077069750838 12.47028934539486 34.70903565049923 -2 -1 0
1327 111 1 0 22.348277216697355 11.812507466694159 34.5351041230971 -3 0 -1
3011 251 1 0 29.0874160220732 10.651428050925112 30.659137145935684 0 1 -1
1322 111 3 0 23.622120370281603 12.456324050017821 36.06116006825264 -3 0 -1
3111 260 2 0 25.681163131415204 15.052553993469777 31.912516908338976 1 0 -1
3012 251 1 0 30.076492580166217 10.16535897856591 32.133032843449115 0 1 -1
3110 260 3 0 24.765946157460707 14.745071239186263 31.009803474595344 1 0 -1
3118 260 1 0 25.843688909474373 13.931527832969696 34.87581548488899 1 0 -1
3113 260 3 0 25.158109631449868 14.848816325707205 33.13489521417842 1 0 -1
3732 311 1 0 29.133579273720226 13.449490561082463 29.588753978066983 2 -1 -1
1102 92 1 0 22.25010145167598 14.76969435709477 36.634027254510485 1 1 0
643 54 1 0 25.618332139178854 9.269399122182298 36.545973387993925 -1 1 -1
1843 154 1 0 26.20667441733788 9.655643266432387 29.393489033934593 -3 1 -2
1388 116 1 0 26.653566955439068 7.398753993695012 31.748531425507533 -2 0 1
1321 111 2 0 23.4010296771704 11.921030141079461 34.73765005559086 -3 0 -1
1329 111 1 0 23.92004224547146 10.880077823354826 34.58892286503799 -3 0 -1
1925 161 3 0 23.551609696800146 9.679574209990571 32.788775340845966 -1 0 1
3114 260 2 0 25.988054569545383 14.875387211782293 34.31677409360929 1 0 -1
1193 100 3 0 28.341338750052465 11.542902950092868 35.5220165853375 -2 -1 0
1923 161 2 0 23.25115931642382 8.43217147683032 32.55544050259558 -1 0 1
3119 260 1 0 27.07475167175642 15.045849810015953 34.190293600294545 1 0 -1
1932 161 1 0 23.520867180853468 9.92224817649115 30.79804438273857 -1 0 1
1931 161 1 0 24.889567127590148 10.775976330775313 31.622682315784857 -1 0 1
1926 161 2 0 23.77913189924663 10.503546043640707 31.64510342593724 -1 0 1
1328 111 1 0 23.89515831115251 12.687290871470717 34.074475459531776 -3 0 -1
1930 161 1 0 23.129647580548305 11.38424570564299 31.641504123121297 -1 0 1
1200 100 1 0 29.751757134852244 13.090343440110978 35.28172095029296 -2 -1 0
1199 100 1 0 28.398478866162137 13.144478062226703 34.22308298717118 -2 -1 0
638 54 3 0 23.625007926197686 8.944088200162977 36.51369363673166 -1 1 -1
1198 100 1 0 29.756439014118325 11.962879254528675 33.95777337704976 -2 -1 0
3006 251 2 0 30.08945373397143 10.454561701462527 31.050301657094863 0 1 -1
3010 251 1 0 30.763196344492044 11.228596676601766 30.877228794551556 0 1 -1
3004 251 3 0 32.4692916719668 9.570853113433213 31.380688266760707 0 1 -1
3583 299 1 0 32.472385242586626 11.96462938118192 32.50806801349208 0 0 -1
1188 99 1 0 35.049652210565775 10.611487418136669 31.506677326543638 -2 1 0
837 70 1 0 32.679140538599086 9.726814446227927 34.54372666725798 1 -1 0
3003 251 2 0 31.789861159213654 9.055692457558047 30.478239045724738 0 1 -1
833 70 3 0 36.165641933971834 8.249003905939489 35.12206035686575 1 -1 0
830 70 3 0 34.463933280365346 9.317907945885738 35.74398046645914 1 -1 0
1186 99 1 0 36.652648676357074 10.70196102471579 32.16606174717753 -2 1 0
1181 99 3 0 36.57656432603819 10.47444429101278 30.167063376312438 -2 1 0
3577 299 2 0 33.016154406120044 12.73345138823426 33.056157522470244 0 0 -1
956 80 1 0 34.158906525942804 14.52269320883551 34.63989983244068 -2 0 -1
3584 299 1 0 34.125075607220815 12.620820964126011 33.11386486600579 0 0 -1
3578 299 3 0 32.81159115785305 13.933030276946031 32.208286259566044 0 0 -1
3580 299 3 0 30.620619749755274 13.706613602619122 32.31742955355766 0 0 -1
3579 299 2 0 31.597788133817627 14.404470043346734 32.11296406024363 0 0 -1
3585 299 1 0 32.59412390881706 12.89230492875507 34.0281972412731 0 0 -1
3005 251 3 0 30.489026235184877 9.324849202244721 30.320548118058692 0 1 -1
835 70 1 0 32.39034793123766 8.719895587253578 35.92058423801328 1 -1 0
831 70 2 0 34.900765745742945 8.286845001478454 34.979756865661294 1 -1 0
829 70 2 0 33.023453708880915 9.624130351647455 35.56084795638216 1 -1 0
1192 100 3 0 30.257210577964493 10.60208997041081 36.21314258935129 -2 -1 0
836 70 1 0 33.0208892209785 10.580629456940931 36.037137635558786 1 -1 0
3002 251 3 0 32.12967160987873 8.115548939500197 29.58683583825744 0 1 -1
3478 290 1 0 36.11872410340981 10.988332898843483 36.47893272061426 -2 -1 0
1182 99 2 0 36.008643110210386 11.032688822704102 31.3906225441845 -2 1 0
1187 99 1 0 36.07108530506792 12.07591004698617 31.281474494599713 -2 1 0
3728 311 1 0 35.0377729226072 12.044676611250352 28.330992419823286 2 -1 -1
3730 311 1 0 30.07206185988426 14.366904763259711 28.348676313442354 2 -1 -1
3726 311 2 0 29.814391284740687 13.39564457273984 28.78500113001419 2 -1 -1
1180 99 3 0 36.386060192089026 8.258376443091118 30.83690756478761 -2 1 0
3477 290 1 0 1.7156817952957397 15.70712750305629 33.636090440940364 -1 -1 0
1238 104 3 0 7.658693799091662 15.924386719388082 34.94945307164276 2 2 0
1676 140 1 0 4.905049622088292 15.542273139490923 30.18115021668073 0 1 0
1675 140 1 0 3.6014411858843056 16.6274085980897 30.816573684101108 0 1 0
1669 140 2 0 3.905654605152223 15.900433828498194 30.0623060119228 0 1 0
2189 183 3 0 4.184737819569217 22.280002837474395 31.02724814510625 0 -1 0
1240 104 3 0 6.536254588808514 15.128234572796568 33.07312492644585 2 2 0
3680 307 1 0 8.067121956781557 22.20114937527383 34.72507940129187 -1 1 -1
3084 257 1 0 7.995245042788509 17.6117002044931 30.294008641826466 0 0 0
180 15 1 0 3.4168358490542716 15.362608981917 1.2239807951788448 -1 -1 0
3855 322 2 0 2.5995328998167584 18.884795000889394 33.183105190860886 2 0 -1
3856 322 3 0 2.6854338584062383 18.750865065758084 32.01599905017041 2 0 -1
3859 322 1 0 4.93976155559221 17.400589040189974 33.11668328040855 2 0 -1
3861 322 1 0 5.665176500111753 18.694882899833342 34.10445105427393 2 0 -1
3854 322 3 0 3.6406900433375946 18.727413175426324 34.04189203974588 2 0 -1
3676 307 3 0 6.467065392928322 20.478537557340314 35.435853817726134 -1 1 -1
2194 183 1 0 4.983534032977466 22.993040587307625 32.807777868026285 0 -1 0
3853 322 2 0 4.893766812708889 18.444908882502443 33.426799730697624 2 0 -1
958 80 1 0 1.3918384908310981 19.593879791265802 36.31657363109768 -1 0 -1
3682 307 1 0 3.7926043031082832 20.999101256765478 36.53473491747107 -1 1 -1
3675 307 2 0 6.555651719937826 21.12261011920395 36.4564492055441 -1 1 -1
3674 307 3 0 7.573287298977021 21.974816272858106 0.8087299753866471 -1 1 0
2190 183 2 0 4.019216000898662 22.666970151713237 32.39128065194327 0 -1 0
3857 322 3 0 1.5493593091511992 19.298337238944583 33.94157586263418 2 0 -1
3860 322 1 0 5.0265838631923 19.036454184749374 32.53538850645039 2 0 -1
2196 183 1 0 3.7198462086353286 21.712786396554687 32.78491076479844 0 -1 0
3082 257 1 0 7.274873374825712 19.261808409819217 30.010347877865403 0 0 0
2123 177 1 0 14.20276830350813 18.596457884504947 35.62735962688491 2 -1 0
2298 192 2 0 13.780909685779651 21.558387890594123 30.58390409968574 -1 0 0
2297 192 3 0 14.161268214075266 22.1575889579507 31.833038676203667 -1 0 0
3673 307 2 0 8.480490759040586 22.086779935797853 35.71414141693818 -1 1 -1
2304 192 1 0 12.853181233947257 22.03477457411339 30.231327332301095 -1 0 0
1245 104 1 0 9.302835652511876 16.976632642858192 34.610368182311426 2 2 0
3078 257 2 0 8.207786715507341 18.68632995341608 30.343675346906807 0 0 0
3075 257 2 0 9.308424565143298 20.288065980219756 31.7202568813604 0 0 0
3083 257 1 0 8.92143923617195 19.06011313203658 29.714682498447903 0 0 0
2720 227 1 0 14.63832016286217 16.54820954985529 30.150036386949058 -3 -1 -1
3073 257 2 0 10.78193749473283 21.529755360228098 33.080440826073314 0 0 0
3076 257 3 0 9.471349593520156 21.061444017755495 30.796982390613064 0 0 0
3074 257 3 0 9.810994626752775 20.468186035738757 32.92428073169527 0 0 0
3077 257 3 0 8.650388070297078 19.13666728058364 31.683097978865497 0 0 0
2303 192 1 0 13.571351015141744 20.48263378990172 30.74526338757321 -1 0 0
3214 268 1 0 11.50529414079743 15.504580253395943 35.203578292583 -1 1 0
1237 104 2 0 8.28338958960346 17.01279812743764 34.18170234123588 2 2 0
1244 104 1 0 7.808384980890328 18.03835443559595 34.3739299440205 2 2 0
1243 104 1 0 8.326010279987722 16.790155037182323 33.14301455996329 2 2 0
2114 177 3 0 13.395499013531698 22.209857552319622 35.59292619310877 2 -1 0
3080 257 1 0 11.233777799703452 21.470678559928682 34.10283796467034 0 0 0
3081 257 1 0 11.562403183949682 21.338694758420782 32.38940163654198 0 0 0
2117 177 3 0 13.528310131420314 20.320577105720336 34.67442479535922 2 -1 0
3679 307 1 0 9.278409345187482 21.32701188096505 35.66892031133878 -1 1 -1
2115 177 2 0 14.086819096047067 21.112338175552033 35.582717876933216 2 -1 0
2118 177 2 0 13.939594164991199 18.953731949288404 34.605457458205485 2 -1 0
2124 177 1 0 13.066103432109786 18.366022715053507 34.15572844309783 2 -1 0
2106 176 2 0 19.138931115681658 15.64424971722319 30.84582487086465 1 0 -2
2053 172 2 0 22.208738884534377 16.92083681720222 32.54243212780402 -1 -1 0
1834 153 1 0 19.560213722029452 18.9241134082122 30.02198460212303 0 0 1
3403 284 1 0 20.510751039757846 19.381787261049322 35.56114093464748 0 0 -1
2721 227 1 0 14.5860943279248 18.19601735640919 29.31781306042474 -3 -1 -1
2294 192 3 0 15.632216793100794 22.531572191168134 33.33297490600352 -1 0 0
2296 192 3 0 16.240404553527394 21.600326557283836 31.335455754661847 -1 0 0
3397 284 2 0 19.92109242512256 20.13726739107539 35.04668616680562 0 0 -1
3407 284 1 0 17.39763025513046 16.543075576529752 33.03911388828764 0 0 -1
1836 153 1 0 21.104464756768984 19.232563190401933 30.739537718896585 0 0 1
2295 192 2 0 15.441504875334532 22.073520418374645 32.11635313363956 -1 0 0
3405 284 1 0 19.737072608326898 21.007528632828702 35.778264123762305 0 0 -1
3406 284 1 0 16.84174873725465 17.769834539937875 31.85762897283104 0 0 -1
3398 284 3 0 18.558025761803936 19.702412923026635 34.76758881645087 0 0 -1
3404 284 1 0 20.318073219277757 20.424566983611143 34.104308719470495 0 0 -1
3399 284 2 0 18.29578346650034 18.791524984398446 33.84407967946947 0 0 -1
1828 153 3 0 21.23133020000665 22.277866973804667 30.03991851577414 0 0 1
1827 153 2 0 20.393020455847388 21.91999270027869 30.867931738206916 0 0 1
1830 153 2 0 20.285037260504108 19.674908717535356 30.171925589483045 0 0 1
3400 284 3 0 19.1394832085426 18.343137641904367 33.10666059501991 0 0 -1
3408 284 1 0 15.73139590831411 17.006051374499354 33.15861216267073 0 0 -1
3401 284 3 0 17.025254686779153 18.496366716678885 33.767911909874805 0 0 -1
1829 153 3 0 19.77699526024338 20.779294042747132 30.986281274280113 0 0 1
2122 177 1 0 14.762495934549394 18.91761188215531 33.8761443059129 2 -1 0
3402 284 2 0 16.74874099158222 17.423612103428972 32.876031598914125 0 0 -1
2060 172 1 0 21.08800653782737 16.717975709104685 32.53751888619273 -1 -1 0
2061 172 1 0 22.67333934660819 16.466826146499802 31.67696054316915 -1 -1 0
1103 92 1 0 21.990797620559533 16.443863099938405 36.338205474395934 1 1 0
2110 176 1 0 18.130855645665722 15.84571763451148 30.48676381692279 1 0 -2
2112 176 1 0 19.744645065405575 16.559077474728777 30.755814552368903 1 0 -2
2301 192 1 0 17.693250040543727 22.06171874162215 33.07708726533781 -1 0 0
2293 192 2 0 17.021865225934814 22.73282575321031 33.6604617791892 -1 0 0
2300 192 1 0 17.12922432971633 22.41541535577608 34.66172990611431 -1 0 0
2111 176 1 0 19.16631759070762 15.324358429086878 31.84242783716827 1 0 -2
1817 152 3 0 28.217335011116326 20.99840569089273 30.38587870306146 -1 2 1
1815 152 2 0 29.18584891037024 21.20090970610752 31.258619791116715 -1 2 1
730 61 1 0 22.7594649482501 21.29687621928248 36.26050561385869 0 -1 -2
2451 205 2 0 28.83739709100335 17.709755701677384 35.44341302605614 -1 0 -1
2452 205 3 0 28.015936139681727 16.84612924833766 35.59867092460753 -1 0 -1
2449 205 2 0 27.317152128567137 19.012875979550607 34.452996954383615 -1 0 -1
725 61 3 0 24.55869676733831 21.655705630926143 35.523078982830675 0 -1 -2
2063 172 1 0 25.24487064963923 20.81359418814132 31.162916687834002 -1 -1 0
2054 172 3 0 22.426881198772385 18.333229523080508 32.5439172515771 -1 -1 0
2450 205 3 0 28.573827800334396 18.93928690949077 35.04929357602527 -1 0 -1
732 61 1 0 22.862170767604628 21.00544969544395 34.429344842908485 0 -1 -2
3112 260 3 0 26.824124490315032 15.444242015671943 31.644274676002155 1 0 -1
2457 205 1 0 27.040636634240414 20.07556481369003 34.32345941604764 -1 0 -1
3116 260 1 0 25.385118147861096 16.171969243442998 29.590496833470176 1 0 -1
3109 260 2 0 25.119571598371955 15.12653301889875 29.633958346211703 1 0 -1
1814 152 3 0 29.086915794625444 20.274015845205533 32.20298848602779 -1 2 1
2059 172 1 0 22.633738539790592 16.42914020184436 33.433978469842934 -1 -1 0
2056 172 3 0 24.648780956199392 18.127083552668857 31.942759774393675 -1 -1 0
2456 205 1 0 26.592544360010013 18.575354581262 35.12588455686315 -1 0 -1
2057 172 3 0 23.521543048853847 20.168485221838587 32.19833408757342 -1 -1 0
2064 172 1 0 24.266390572677047 22.021318134886112 32.123831255814636 -1 -1 0
2058 172 2 0 24.735364971636024 20.971660030010018 32.11812503161017 -1 -1 0
2055 172 2 0 23.642379922561318 18.77898766520427 32.215134021329085 -1 -1 0
2455 205 1 0 27.286294058826304 18.48240883766988 33.48192464547596 -1 0 -1
726 61 2 0 23.182347988379764 21.66199072060939 35.2807509002038 0 -1 -2
3300 275 1 0 25.09769226796962 18.110218537889693 36.16423414259536 1 0 -2
3120 260 1 0 25.746075082017498 15.671205261402818 34.9582006577607 1 0 -1
2062 172 1 0 25.411516438292622 20.892797772596264 32.97585733205724 -1 -1 0
1816 152 3 0 30.095770766469972 22.012270802352006 31.09003385322798 -1 2 1
262 22 1 0 32.983853357321415 20.60897012469059 30.509529438776646 -1 -1 1
1819 152 1 0 30.31699125794482 19.449208203900863 33.69347657206077 -1 2 1
1813 152 2 0 30.298342714115044 20.323990555290468 33.065264715714875 -1 2 1
3257 272 3 0 33.374729948620946 18.248251462530988 29.8065812005548 0 0 -1
3258 272 2 0 34.686604924476285 18.0556674691949 30.415413209116387 0 0 -1
3262 272 1 0 35.376466599589264 18.849356778691696 30.021159369987515 0 0 -1
3264 272 1 0 34.98721634200299 17.040093740563137 30.093273937197488 0 0 -1
2828 236 1 0 33.9203054148502 22.641463561767047 34.35157577676224 0 -1 -2
3864 322 1 0 36.33924106510376 19.384655476269216 32.139062093471054 1 0 -1
957 80 1 0 33.588148249997545 15.184307578287344 36.193048289331834 -2 0 -1
3581 299 3 0 31.505167386129347 15.704603640830097 31.833191929368482 0 0 -1
2454 205 2 0 30.489642714956325 16.162190425685758 36.06148737515733 -1 0 -1
1821 152 1 0 30.196230906979608 21.176574372476576 33.69796704491376 -1 2 1
2453 205 3 0 30.16347118482141 17.536454751037386 35.72470557009244 -1 0 -1
3587 299 1 0 29.79385055242906 16.363593945269415 33.03416354870687 0 0 -1
258 22 2 0 32.925053962821266 21.645908856584764 30.061977876065654 -1 -1 1
2458 205 1 0 30.156771814146502 15.480842515456207 35.31700439622782 -1 0 -1
3263 272 1 0 34.535851954755174 18.135314182346026 31.52427175471542 0 0 -1
2829 236 1 0 33.920335669659856 21.216202923938546 35.40391277391279 0 -1 -2
3588 299 1 0 30.21061736830488 17.197250647874753 31.429375898975795 0 0 -1
3863 322 1 0 36.28178033621678 20.851590866506847 33.026568383393105 1 0 -1
953 80 3 0 36.362629884595904 17.80983076329487 36.11164056487976 -2 0 -1
3582 299 2 0 30.162681611212484 16.225978307584505 31.972367193191996 0 0 -1
3586 299 1 0 29.41094837885875 15.523650870243625 31.48849780683861 0 0 -1
949 80 2 0 33.9505165485622 15.440961868085875 35.153546114152704 -2 0 -1
955 80 1 0 33.25704067746586 16.159759814923834 34.66093160040173 -2 0 -1
950 80 3 0 35.17319039740201 16.17139586545683 35.418365755251244 -2 0 -1
952 80 3 0 34.197496113597126 18.226522373425592 35.53803709852641 -2 0 -1
3858 322 2 0 36.32974518214358 19.73362905755481 33.16401282659157 1 0 -1
951 80 2 0 35.124607147498814 17.443666812259075 35.64781303136633 -2 0 -1
3476 290 1 0 36.418397650528334 14.405832382440632 33.27219092946221 -2 -1 0
3862 322 1 0 35.52435985333059 19.300506547748554 33.752794719127586 1 0 -1
959 80 1 0 35.68997671525744 19.721059977499344 36.401295186561256 -2 0 -1
1820 152 1 0 31.123982274554525 20.495916056238347 32.31575148958984 -1 2 1
2188 183 3 0 5.372888179732048 24.22847643386937 30.609118284090883 0 -1 0
2187 183 2 0 4.849762472259653 23.19319611056006 30.29580907388175 0 -1 0
3248 271 1 0 7.315851514150908 25.89151345889039 29.95934370776233 -1 -2 -2
2174 182 3 0 0.8037861416629946 24.11885915415042 35.57670327540928 1 0 -1
253 22 2 0 1.2294000534797696 23.629452666519175 29.6985532111268 0 -1 1
261 22 1 0 2.1561197797205964 23.144426496807217 29.999624090617203 0 -1 1
2175 182 2 0 2.0896906984048247 24.274871737615367 35.153335117772954 1 0 -1
1701 142 1 0 3.1816716417890056 27.065775469655073 31.214825838187213 0 -1 -1
3557 297 3 0 5.094934970599703 27.730409463017633 35.801163296814366 1 -1 0
3556 297 3 0 5.734442252558627 27.89140397008772 33.65456265130037 1 -1 0
1700 142 1 0 3.6770909356436934 28.598948674321573 31.87502678553717 0 -1 -1
1942 162 1 0 7.379884520461575 29.052077274322503 31.81443269247461 0 1 1
1699 142 1 0 4.840457253391428 27.562983224476604 31.199386275685963 0 -1 -1
3564 297 1 0 4.6867197794232425 29.769506018308704 35.34812065556775 1 -1 0
3558 297 2 0 4.193044942956807 28.80584612328635 35.62244385255703 1 -1 0
2195 183 1 0 3.174501869561796 23.407012727222334 32.51074764792852 0 -1 0
2183 182 1 0 4.600295026148564 24.49928253305932 35.21638042393766 1 0 -1
3555 297 2 0 5.672046329173066 27.30013674990701 34.703956958062335 1 -1 0
1938 162 2 0 7.465880931521581 29.20458938029646 30.74567165755032 0 1 1
1693 142 2 0 3.8457726421793947 27.92850100109761 31.083872766515437 0 -1 -1
3561 297 1 0 6.855042396616557 24.45501065183391 34.04581673400803 1 -1 0
1694 142 3 0 3.6859348414813446 28.682182284899994 29.845549792043364 0 -1 -1
3559 297 1 0 5.683352056631258 25.21669943643212 33.01414461621386 1 -1 0
2177 182 3 0 2.881045096548922 23.528607412142872 35.916927145057194 1 0 -1
3554 297 3 0 6.0914222459634235 26.09048552044929 34.904440580708865 1 -1 0
3553 297 2 0 6.561077411380742 25.39190270518794 33.7186036180269 1 -1 0
3560 297 1 0 7.37808799172029 26.024955311226293 33.241479819825145 1 -1 0
2178 182 2 0 4.2970578664873305 23.554251694431283 35.58428666252057 1 0 -1
2182 182 1 0 4.444363086752551 22.715894340914044 34.93263216487882 1 0 -1
3563 297 1 0 3.694255311455349 28.969303789334322 36.55741152301794 1 -1 0
1944 162 1 0 6.45807827993656 28.98407958905774 30.317927163627044 0 1 1
260 22 1 0 0.8690746016926054 24.27675491329186 30.582020168342577 0 -1 1
2176 182 3 0 2.432880503285807 24.95037307959472 34.21016385023221 1 0 -1
3562 297 1 0 3.5344977931838857 28.465291297479116 34.85829718814345 1 -1 0
1207 101 1 0 13.266889484747667 28.042375849737194 30.701289913469104 0 -2 0
2150 180 3 0 15.217404335053734 27.30658538988833 34.4645634017767 -1 -1 1
3079 257 1 0 10.356188730607853 22.447818810222795 32.83956744611175 0 0 0
1209 101 1 0 11.573991336994938 28.065166890712298 30.140273954626533 0 -2 0
3356 280 1 0 12.32146739605282 25.540508275609294 29.678453911330205 1 1 -2
1201 101 2 0 12.321059837109228 28.60478981111935 30.678754139422633 0 -2 0
2302 192 1 0 14.538873528302021 21.86081764477179 29.809642708360467 -1 0 0
3357 280 1 0 13.523965357276028 24.54307272209522 30.30765952601195 1 1 -2
3241 271 2 0 8.200142377901647 25.27767044448786 30.167970014769896 -1 -2 -2
3681 307 1 0 9.007415910217327 22.99676138855407 35.95920283157847 -1 1 -1
3249 271 1 0 8.064498342738624 24.599144106204232 30.993244859611167 -1 -2 -2
2736 228 1 0 9.825758445630012 28.13240351043863 36.00020978034586 -1 1 0
1208 101 1 0 12.002824056559385 28.713851582555538 31.70507375081477 0 -2 0
2731 228 1 0 12.284870585501938 25.263590216106294 31.84292989491006 -1 1 0
2119 177 1 0 13.294682643120087 24.187265440735388 36.05151170051085 2 -1 0
2121 177 1 0 15.016490469765127 23.605405758889113 35.74315193331341 2 -1 0
2732 228 1 0 12.93963819298601 25.53878399516499 33.4207227674471 -1 1 0
1937 162 3 0 8.446948237204019 28.38538945804898 30.155025244874803 0 1 1
2728 228 3 0 10.507161365598181 25.494803235873846 35.250334621472305 -1 1 0
3244 271 3 0 10.591388453177176 24.23895316156467 29.36132678128101 -1 -2 -2
2733 228 1 0 11.803171668912508 24.193277589175132 33.277811484943705 -1 1 0
2735 228 1 0 8.598924173663427 26.881229196002256 36.20606780271424 -1 1 0
2734 228 1 0 8.169615682929022 28.43801217248453 35.20424669917693 -1 1 0
2725 228 2 0 12.013030172152028 25.22573349863581 32.93003487111918 -1 1 0
2730 228 2 0 8.956025978242343 27.7079801113039 35.533530168124244 -1 1 0
2729 228 3 0 9.406752505507933 27.207593540918396 34.278562475155525 -1 1 0
3247 271 1 0 9.071801511461771 25.95430951674498 30.342199908257165 -1 -2 -2
2726 228 3 0 10.933088313941612 26.141578172541507 33.124567778441794 -1 1 0
2113 177 2 0 14.007850199023489 23.3701236480558 36.21133701717661 2 -1 0
2727 228 2 0 10.255877114625964 26.219134589395544 34.29621441971667 -1 1 0
2157 180 1 0 14.798877546760362 28.629954711037758 35.966263745299806 -1 -1 1
53 5 3 0 16.78739540114621 29.243283541796494 32.24674982135903 1 -1 0
448 38 3 0 18.742199207741656 24.583054660854554 29.556260088190403 0 0 1
1832 153 1 0 20.104435933697033 24.539377929635744 31.101958594518216 0 0 1
2158 180 1 0 16.881967928537357 26.169655350976853 30.978917484765763 -1 -1 1
1833 153 1 0 20.56021473735311 24.29241955550413 32.94200875810599 0 0 1
2156 180 1 0 16.4047875347608 27.827929334501924 36.019378079521786 -1 -1 1
2154 180 2 0 16.81928733581635 25.537722136754244 31.86880175796786 -1 -1 1
2197 184 2 0 19.82182210495837 28.738818632974205 32.949365217923656 0 -1 1
2204 184 1 0 19.080603327693087 28.727756940245985 33.79377100719397 0 -1 1
2203 184 1 0 20.790637149524827 28.625129729616138 33.358609642298894 0 -1 1
2348 196 1 0 20.141675335858626 29.14621818783675 35.952583120785135 1 0 0
2159 180 1 0 17.81399685851703 25.4023357236455 32.35985643473976 -1 -1 1
1826 153 3 0 19.97167202322186 22.677155485194294 31.891449169440126 0 0 1
2149 180 2 0 15.303580221985504 27.68929054186151 35.86399858645313 -1 -1 1
2151 180 2 0 16.252046126745533 26.645766870949426 33.95140978685167 -1 -1 1
2160 180 1 0 16.23876091196621 24.699125823560667 31.601577185759172 -1 -1 1
2785 233 2 0 21.11824429529769 25.382164581243075 35.58472415319221 1 0 0
2793 233 1 0 21.696636488264556 26.270193857594123 35.672916854824074 1 0 0
2153 180 3 0 15.922145886578546 26.27750195592082 32.74536966706441 -1 -1 1
2483 207 1 0 22.40110358277058 28.145742238738162 31.220582295208207 2 -1 -1
50 5 3 0 16.846480179475552 28.546845190492974 30.099675306043125 1 -1 0
2299 192 1 0 17.24068121972434 23.771387201265032 33.55964985684297 -1 0 0
2155 180 1 0 14.864461246906817 26.886477536543023 36.43039490976735 -1 -1 1
2786 233 3 0 19.830185572890585 25.82083529813465 36.010469014772326 1 0 0
2787 233 2 0 18.910870489218933 24.93211605610181 36.46227199999386 1 0 0
2788 233 3 0 18.89705859100925 23.71204923177856 36.34054626383229 1 0 0
2205 184 1 0 19.552143594781622 28.002698610982563 32.13066654176492 0 -1 1
1825 153 2 0 20.647086805328442 23.997563828663157 31.881186418543308 0 0 1
1831 153 1 0 21.691789159762166 23.92446707391068 31.602819639506063 0 0 1
2152 180 3 0 17.35828807675866 26.561051565230752 34.48445784830433 -1 -1 1
2791 233 1 0 21.497198494608526 24.76542194233158 36.37629713468326 1 0 0
2792 233 1 0 21.060524315443544 24.947297747374595 34.625409988602264 1 0 0
2481 207 1 0 24.83666752225209 23.712627031516774 29.778741863259373 2 -1 -1
1823 152 1 0 27.603361245123043 22.430951776310202 28.98439010442269 -1 2 1
2475 207 2 0 24.061528843744473 26.49178943472326 30.123853060592307 2 -1 -1
1070 90 3 0 27.734706866275207 27.57027672961776 30.32418465159573 1 1 2
2476 207 3 0 24.214386336466113 26.31856460142141 31.335506115075745 2 -1 -1
2482 207 1 0 22.280135749377855 29.1612885398857 29.80644309884436 2 -1 -1
731 61 1 0 22.84437459613376 22.675625565125397 34.9255207378159 0 -1 -2
2478 207 2 0 22.997659166405217 28.616314213205058 30.481866389704557 2 -1 -1
1071 90 2 0 27.248572554493652 27.204328885612117 31.540864105798534 1 1 2
1077 90 1 0 28.884594271333626 28.96967570848435 31.288297085056115 1 1 2
1076 90 1 0 27.638467651942126 29.589925498585472 30.131477760737507 1 1 2
2480 207 1 0 26.066802770811062 25.072069093261316 30.15797842928701 2 -1 -1
1072 90 3 0 27.045518027653767 28.003821752790003 32.451652048182105 1 1 2
723 61 2 0 25.331829905450007 22.739079744582863 35.412432537686 0 -1 -2
722 61 3 0 26.623720946646113 22.30616179006014 35.50736749763752 0 -1 -2
1069 90 2 0 28.3768529768666 28.811445215877704 30.285224974836495 1 1 2
1074 90 2 0 26.70758571754329 25.383560769633625 32.89999980740031 1 1 2
724 61 3 0 24.934350612550244 23.883836023859708 35.28970729697846 0 -1 -2
1073 90 3 0 27.098500485366948 25.88614103756924 31.607260107412547 1 1 2
1079 90 1 0 26.978635355738312 26.017421534991918 33.62844666794479 1 1 2
721 61 2 0 27.621906590959046 23.313708217542693 35.63836863667668 0 -1 -2
728 61 1 0 28.58973260590971 22.87607082575573 35.881404601657756 0 -1 -2
1636 137 3 0 22.561951022537592 29.34528128946102 33.91845153112261 2 -2 0
1080 90 1 0 25.629684671749796 25.189602965138302 32.85898168180266 1 1 2
2484 207 1 0 23.91482266274457 29.212106154776368 30.829509561962976 2 -1 -1
1644 137 1 0 24.288699177649406 27.36605809197325 35.13924279855835 2 -2 0
1643 137 1 0 25.956556462660355 27.850615676418418 34.82061366134678 2 -2 0
1642 137 1 0 24.94441661340037 27.657293525883347 33.50960635458306 2 -2 0
1638 137 2 0 24.896156094503972 28.064950759293342 34.53226716822765 2 -2 0
729 61 1 0 27.80238090773636 23.90345234635766 34.73870785180868 0 -1 -2
1078 90 1 0 27.25876087862296 24.45334998727265 32.86810735685421 1 1 2
263 22 1 0 32.72402763364774 22.36041725599995 30.843330094627067 -1 -1 1
1570 131 1 0 32.31664257040547 27.81600084583567 31.92336220998905 0 0 -1
1563 131 2 0 33.963570433754626 28.710911325782426 33.48284590715525 0 0 -1
1562 131 3 0 34.905274454197055 29.596515568915216 33.86417477992597 0 0 -1
110 10 3 0 31.911003575333435 25.732341581228887 30.66229818707772 -2 0 0
115 10 1 0 29.929330757647794 26.066349910061057 30.72916503261462 -2 0 0
255 22 2 0 35.140362834817765 22.47510643291037 30.161468380838535 -1 -1 1
1568 131 1 0 36.14553054476014 28.009778776213416 34.00491013301208 0 0 -1
256 22 3 0 35.114292529945736 22.736717271631033 31.338665538191186 -1 -1 1
1561 131 2 0 36.0733469292967 29.035164371133146 34.380754057581534 0 0 -1
2821 236 2 0 33.316992166501244 22.12843082222373 35.10224623622058 0 -1 -2
111 10 2 0 32.503047438170746 25.376930336071748 29.515948928581462 -2 0 0
2827 236 1 0 32.331445900004965 21.965161282956302 34.65456110374284 0 -1 -2
1567 131 1 0 35.918315228144145 28.873595568440802 35.40866607289327 0 0 -1
2822 236 3 0 33.15388168576259 23.08443398226485 36.15713830638984 0 -1 -2
1564 131 3 0 33.88476331853144 27.526103919401187 33.75915994806373 0 0 -1
2181 182 1 0 36.039531468020606 25.43163363824847 34.041123075034264 0 0 -1
2180 182 1 0 35.81118680859267 26.06753303171433 35.75815327843328 0 0 -1
2173 182 2 0 35.831842908153 25.160721581673656 35.08577537612143 0 0 -1
2134 178 1 0 30.469633612886874 25.490162483356947 34.583797843504314 1 0 0
109 10 2 0 30.598361974088185 25.250354800910976 30.796253178434903 -2 0 0
2130 178 2 0 30.828835071408587 26.319168164446292 35.20841017932896 1 0 0
2136 178 1 0 31.855620737514663 26.232069414962233 35.693816660567386 1 0 0
2179 182 1 0 34.83002850327043 24.771348670531594 35.0185812230637 0 0 -1
116 10 1 0 30.321754374448485 24.54935754329791 29.96990203450552 -2 0 0
117 10 1 0 30.56091496641573 24.69917334486036 31.739835795972684 -2 0 0
2135 178 1 0 30.801509481673822 27.26824924335048 34.6603423242586 1 0 0
1565 131 3 0 33.05611825246766 29.41845591506917 32.845095001639045 0 0 -1
1571 131 1 0 31.054789490162698 28.616133052885758 32.99253222290135 0 0 -1
1566 131 2 0 31.924939650361058 28.779691768477512 32.26794681548987 0 0 -1
2129 178 3 0 29.741008664111092 26.142398197657965 36.23124284994965 1 0 0
1943 162 1 0 7.584813616440061 30.292532795247052 30.58293848515235 0 1 1
990 83 2 0 1.5311247866692714 35.389249188636235 34.665032417472744 1 1 1
2878 240 1 0 1.8359478895811363 35.00958669687398 30.280122667444104 1 -1 2
2597 217 3 0 1.2173510967856855 31.255441377607056 32.13262449313879 0 -1 0
994 83 1 0 2.3215299703241397 34.93329178607266 35.210491812670476 1 1 1
2604 217 1 0 1.0900153062564746 32.85921635923268 33.40718794063376 0 -1 0
995 83 1 0 1.6448322374296733 35.0636635715801 33.572485905462585 1 1 1
2595 217 2 0 1.2768145054972069 30.982560830666056 30.80339192869338 0 -1 0
2598 217 2 0 1.2608605893654565 32.71285754005042 32.392552705755804 0 -1 0
2596 217 3 0 1.7661117198095042 31.70483128418662 29.914527843888244 0 -1 0
1569 131 1 0 0.9268668253155445 29.69865075208945 34.03427727715809 1 0 -1
2877 240 1 0 6.129624669992549 35.762147580710426 32.71167105849429 1 -1 2
2874 240 2 0 1.7054017964419326 36.0335943185321 30.580342533962742 1 -1 2
2316 193 1 0 2.2647905158857093 31.484236269596238 35.0815664363812 1 1 0
3548 296 1 0 6.922557108231062 32.40799013706815 35.35898466054587 0 0 0
2602 217 1 0 2.2135755748790964 33.11200205893086 31.965498708397647 0 -1 0
3552 296 1 0 4.3284183561260665 30.845986512338683 29.964345402688693 0 0 0
2873 240 3 0 2.4400787369883035 36.33835263128958 31.715648961142424 1 -1 2
2594 217 3 0 0.7891446454777487 29.766681383822352 30.59311900450749 0 -1 0
2310 193 2 0 1.6666737351410907 31.588329380017278 35.965970364487916 1 1 0
3542 296 3 0 6.364050638683125 32.06698687175501 33.51839163494448 0 0 0
3551 296 1 0 5.574575024322514 31.938929387176866 29.41363490429356 0 0 0
3541 296 2 0 6.113650080520012 32.72533131109672 34.787417320404685 0 0 0
2872 240 3 0 4.543114002362765 35.891222946420996 30.816188255027388 1 -1 2
3550 296 1 0 4.243050922586157 32.64371063775325 30.38564459651098 0 0 0
3546 296 2 0 4.890233302387267 31.78327889562547 30.273181032272692 0 0 0
2871 240 2 0 3.7886686255804656 36.1204102349626 31.698982435977925 1 -1 2
3543 296 2 0 5.282425076909901 31.984246641978167 32.744025710940484 0 0 0
3545 296 3 0 5.666128455737749 31.773619578385542 31.526286351898264 0 0 0
3544 296 3 0 4.094365380471772 32.072968044665465 33.047151108074466 0 0 0
2869 240 2 0 5.587401764967704 36.6452332199324 33.13500918900154 1 -1 2
2870 240 3 0 4.179204287667857 36.42978479100951 32.93730249996838 1 -1 2
3547 296 1 0 5.165809918354339 32.45137646022845 35.14036093112821 0 0 0
249 21 1 0 7.821831882482387 33.081432934543955 31.32268062532259 0 0 0
3549 296 1 0 6.105845515058951 33.831404682089236 34.665976265817925 0 0 0
248 21 1 0 7.764722669096339 34.54488998369837 30.38281727519891 0 0 0
2252 188 1 0 13.375489905834163 32.448890994812345 35.49042030215804 2 -2 -1
1233 103 1 0 14.400183981357124 36.43918650935809 35.27083719229457 2 1 0
1225 103 2 0 14.561196563747238 35.53911327419541 34.68731349171308 2 1 0
1212 101 1 0 13.217424999260588 33.20180460185205 31.96885314123157 0 -2 0
1231 103 1 0 13.619130560480283 35.16825629945036 34.30840148888946 2 1 0
1202 101 3 0 12.403963038145523 29.91279043636227 30.151570079677516 0 -2 0
236 20 1 0 11.179212728884309 31.023524466203142 33.25689490854308 0 0 2
1203 101 2 0 12.852601789644414 30.905212330811146 30.931304172024394 0 -2 0
2923 244 1 0 13.228167659132811 36.483582546918626 32.16006515202828 0 -1 0
2917 244 2 0 12.172465465994733 0.743206670632361 32.42783349947879 0 0 0
1205 101 3 0 12.611944600210432 32.03226236297646 30.275173642346196 0 -2 0
1210 101 1 0 13.986121835916414 33.52517282771866 30.46591814132717 0 -2 0
242 21 3 0 9.185910454417977 33.07639884205251 29.769499674257936 0 0 0
1206 101 2 0 13.037773489468538 33.27542139827816 30.892654729076995 0 -2 0
235 20 1 0 9.752942295993337 31.032794671198815 32.030261624270736 0 0 2
229 20 2 0 10.102497236964036 31.015532349137168 33.06076582591269 0 0 2
237 20 1 0 9.728885535442892 30.098507355236112 33.50194986117369 0 0 2
2925 244 1 0 11.674458008565608 35.74593674956705 32.548816407895586 0 -1 0
2251 188 1 0 14.468867399045815 30.92921232684798 35.26425647393371 2 -2 -1
1211 101 1 0 12.359945399521951 34.13406128724415 30.53377815080755 0 -2 0
1204 101 3 0 13.310974072093638 30.78094669443298 32.040207184565276 0 -2 0
2245 188 2 0 14.347886909039566 31.948068652211496 35.778504450858385 2 -2 -1
241 21 2 0 8.48407328573751 33.78250715994581 30.813061786852458 0 0 0
247 21 1 0 9.168117555706653 34.4247956452574 31.37082989403026 0 0 0
238 20 1 0 10.839539357940746 34.918414234940435 35.952356477572614 0 0 2
233 20 3 0 9.30394317359157 33.95806244326512 34.86646785306657 0 0 2
239 20 1 0 10.109962160531547 35.86414389391137 34.62148411193964 0 0 2
240 20 1 0 9.222034795691325 35.67102096420044 36.06237419522035 0 0 2
234 20 2 0 9.937548272397112 35.16192241706247 35.41229860883367 0 0 2
231 20 2 0 10.067853815167238 33.21764799332228 33.99252984570524 0 0 2
232 20 3 0 11.139966147082342 33.56608465160479 33.447273526158824 0 0 2
230 20 3 0 9.420940586240318 32.0891206941277 33.75576809544586 0 0 2
743 62 1 0 16.84958361714934 36.205108586747826 30.12271435449767 -1 -1 0
1234 103 1 0 18.033915510281442 33.17079931462685 32.0465947044224 2 1 0
1235 103 1 0 18.70233835392947 34.64597178344454 31.25348578667166 2 1 0
1226 103 3 0 15.467803838318073 35.78585757435129 33.57617841075813 2 1 0
3339 279 2 0 21.98014997290815 35.625864720115786 29.92129409945374 0 -1 0
2201 184 3 0 20.213642317779613 31.760148672256264 31.060609290314982 0 -1 1
54 5 2 0 16.243102527429954 30.182912325755982 33.100824739700286 1 -1 0
1232 103 1 0 14.9590077592755 34.77224552661528 35.34791986986872 2 1 0
59 5 1 0 15.647520559899725 29.705833292604034 33.83080668991049 1 -1 0
2206 184 1 0 21.1141626511041 33.332590817082384 30.2656479783383 0 -1 1
744 62 1 0 16.048997462742864 35.101157398409235 29.044279550468083 -1 -1 0
58 5 1 0 15.637070803574346 30.940975400005655 32.56225809257342 1 -1 0
1227 103 2 0 16.285465725504032 34.72679604667386 33.344702540036586 2 1 0
1236 103 1 0 18.804632318579912 34.49841388966945 33.052628944898906 2 1 0
1228 103 3 0 16.330343864716234 33.67882133540379 34.01521766475184 2 1 0
1229 103 3 0 16.971301517408783 34.92220173988436 32.252658628496754 2 1 0
1230 103 2 0 18.20144049389729 34.22764523884185 32.1836934986724 2 1 0
2202 184 2 0 20.78808575207068 32.33708894146889 29.9044043124201 0 -1 1
2349 196 1 0 20.24427994605145 30.722566308793958 0.8077235274458587 1 0 1
738 62 2 0 16.325514944577208 36.21263108413547 29.162538320560103 -1 -1 0
52 5 3 0 16.831858287893038 30.750078627950554 30.56270239085095 1 -1 0
51 5 2 0 16.87020554471693 29.59039519994079 30.96802745754484 1 -1 0
2253 188 1 0 15.285739105892612 32.4812089147374 35.528754361549844 2 -2 -1
60 5 1 0 17.01779241209679 30.696517486176813 33.770085430108935 1 -1 0
3096 258 1 0 17.414655136722143 32.501691307619886 0.8307952038910661 -1 1 2
2199 184 2 0 19.921340773632895 30.45070964427911 31.143403807629173 0 -1 1
2207 184 1 0 21.551134413114383 31.668467844042624 29.482619209472805 0 -1 1
2208 184 1 0 19.966243897235127 32.4379581206593 29.156520135371903 0 -1 1
1640 137 1 0 21.27457649137556 31.42268698364708 34.24672606884239 2 -2 0
3340 279 3 0 21.209381905282704 35.73238765839532 30.83958823981778 0 -1 0
2200 184 3 0 19.846740560446573 29.71030756113822 30.157503870763875 0 -1 1
2198 184 3 0 19.756651050145848 30.118331640040218 32.46693281298732 0 -1 1
3337 279 2 0 23.918659388891612 36.010098483904464 31.256157871306947 0 -1 0
3345 279 1 0 23.396098089449357 35.527922693598626 32.08752555006958 0 -1 0
1639 137 1 0 22.306436026657096 32.48621136021867 33.17241369097773 2 -2 0
1410 118 2 0 28.977082422687968 29.848272825783855 35.23894581128931 0 0 0
1634 137 3 0 23.48648977353158 31.303973997046313 34.53056822363538 2 -2 0
575 48 1 0 25.627417015901653 1.0007211626709696 33.973711510281916 0 1 1
566 48 3 0 23.65386351769874 34.5197647136202 36.351851386400185 0 0 1
1409 118 3 0 28.19630344602075 30.446549491320148 36.23899861492824 0 0 0
567 48 2 0 24.64326819391212 35.29048817744027 35.965270888719864 0 0 1
569 48 3 0 24.103128111113936 36.30176055273949 35.257757425578404 0 0 1
568 48 3 0 25.831824516975352 35.1255694252295 36.26357318419721 0 0 1
3920 327 1 0 26.26915235465743 31.853460942945148 34.47403314959754 -2 0 0
3916 327 3 0 27.857661389480132 34.895272366009124 32.95724156698728 -2 0 0
3915 327 2 0 28.56650152556986 34.101595822679116 33.49283054515685 -2 0 0
1641 137 1 0 22.21868724055377 32.903823590628065 34.86643739883967 2 -2 0
1633 137 2 0 22.247238900678294 32.06045028649761 34.176050490716015 2 -2 0
3919 327 1 0 26.605548410262365 32.20535344194931 32.719456715310024 -2 0 0
3913 327 2 0 26.65366626131083 32.569372224928074 33.73497793714147 -2 0 0
3914 327 3 0 28.17791751051606 32.84681730746539 33.89399791245189 -2 0 0
3921 327 1 0 26.132459048731302 33.51853030881561 33.804887485784576 -2 0 0
2011 168 1 0 27.97449378025187 34.00049737698164 30.869315800810025 -1 0 0
1414 118 1 0 28.42573018718317 29.066689838718506 34.75063006224669 0 0 0
1635 137 2 0 23.471680289609463 29.96011278727822 34.40472166871948 2 -2 0
1637 137 3 0 24.610621853129157 29.44410122587418 34.83776352721947 2 -2 0
3343 279 1 0 24.965736829310845 35.68641213180596 31.21637434524644 0 -1 0
2005 168 2 0 28.174907360013425 34.035442257377476 29.78624383334269 -1 0 0
2012 168 1 0 29.254912096552474 34.20266208485006 29.58454804239102 -1 0 0
2498 209 3 0 33.56987706464271 34.92512196413059 29.913791198557224 -1 1 -1
2499 209 2 0 33.12445330682733 33.65563177634198 30.098713769285297 -1 1 -1
2879 240 1 0 36.61370593989079 36.238081499702304 30.771913809045902 0 -1 2
3923 327 1 0 31.252706641371933 35.55609942534311 34.52935002625679 -2 0 0
3917 327 3 0 29.83763320956712 34.221673206068196 33.805749190343306 -2 0 0
989 83 3 0 36.189120795854706 34.95846380219436 35.261741463557875 0 1 1
3922 327 1 0 29.78080052361324 36.24071283647091 33.71339167404315 -2 0 0
3918 327 2 0 30.544482286387574 35.435713447036925 33.70477522455448 -2 0 0
2508 209 1 0 32.58547935477387 31.302895534358083 30.921075612578523 -1 1 -1
2507 209 1 0 31.056480580148012 32.19160202567626 31.033936224806695 -1 1 -1
992 83 1 0 33.01452010837662 33.90365695115482 33.578864606865544 0 1 1
993 83 1 0 32.959234491501206 32.37377462866229 34.44359463317595 0 1 1
985 83 2 0 33.06607837798468 33.49215907164133 34.57176042904355 0 1 1
3924 327 1 0 31.237297709421238 35.45909710096071 32.918924008047085 -2 0 0
1572 131 1 0 31.542194671841465 29.385591343979463 31.455096451913644 0 0 -1
987 83 2 0 35.2103419040148 34.56988756874923 34.36701866031184 0 1 1
1415 118 1 0 29.243068225747482 30.49156223512068 34.43261975004534 0 0 0
991 83 1 0 32.254124441397124 33.80818600018439 35.206901841013455 0 1 1
2506 209 1 0 31.96858618586019 32.00859133699325 32.46604187148713 -1 1 -1
2603 217 1 0 36.30756716430965 33.20338488618194 31.980876550334678 -1 -1 0
986 83 3 0 34.41646084184612 33.675477424441816 35.07210798548555 0 1 1
2501 209 3 0 32.62036000691459 33.49748412866703 31.31721889872763 -1 1 -1
988 83 3 0 35.11886005830047 34.95280306612165 33.23033853932936 0 1 1
527 44 1 0 32.766312006579625 29.89704780409542 36.4492897343906 0 -1 0
2502 209 2 0 32.07307830141793 32.15759166333253 31.4630902199684 -1 1 -1
1416 118 1 0 29.82799917052616 29.290340174830487 35.592760133842944 0 0 0
2315 193 1 0 36.61207756737716 32.00598078006632 35.697328597597746 0 1 0

Velocities

1055 -0.00575610701466166 -0.009454012841120836 -0.005749325664397065
1153 -0.008127287260056066 -0.0022992525379348936 0.00028347445327360537
1159 0.005056359714333289 0.03163069986327296 0.007935075132406237
1161 0.004586530504502748 -0.021314151131209002 0.0024110940344074724
3333 -0.013352281960709861 0.023714653313308274 -0.008538429737406773
3328 -0.0022374419200992656 -0.0024231219203220697 0.0011854132722363881
2645 -0.003017813047667821 -0.0013506775923566557 -0.0033103788915653963
3332 0.005781415589217758 0.030813414776417213 0.0015076012178001537
3325 -0.003538534907378017 -0.0031767778739060252 0.0074218554513146295
3336 -0.02708393646024995 0.018909540516369304 -0.005998633429521248
3329 5.383592184339346e-05 -0.0018135895349374426 0.000705851732205701
1859 -0.007642577026915253 0.000586416452654872 -0.014780055071773587
1860 0.009415523321338428 -0.014857953599603527 -0.0003245828465152305
1858 -0.005302493944894842 0.0038527215903917853 0.013839123637537561
1854 -0.003003951484382635 0.0011041052795271883 -0.00036390402711426636
1852 -0.004940882546095786 -0.0022311625619071086 0.004914719295100057
1853 -0.006602805247727912 0.0023333793541845038 -0.0023673690796209915
1851 -0.012277579996262979 -3.972564307385136e-05 0.001363557561302326
1850 -0.005030580869527462 -0.002740882505020398 -0.005889110863989236
3327 0.0014374913426065518 0.003446897533004582 0.002660014878857384
3326 0.001970896516666883 -0.0034542688511649566 0.0017718800865158468
2428 -0.004351068996876286 -0.005405845012624449 0.006511791512623832
2709 0.002103914916246578 0.013450328374354307 0.019944721544764697
2430 -0.0022146386191275115 -0.0014695956426928603 0.0015651900287858122
2435 0.01837529675640215 -0.010305748675739546 -0.0011277851303154438
2436 0.01815962387220513 -0.010701825571662361 -0.019931178026780034
3331 0.013424674320799367 0.000339804941908429 0.0030706421145902415
1160 0.0052553287751957185 0.016109108765818562 0.026937616530487797
2426 -0.002325690656042692 -0.0005253500601928269 0.0011355502456494662
2647 -0.013809680318951367 -0.012474800658613297 0.007826019391295746
1081 0.00586217983760701 0.01106178438229077 -0.0037245808618787657
1089 -0.009156933959985162 0.012291591569646211 -0.0034944282854218185
1087 -0.004665643127322194 0.017927287696464275 0.019564955944047783
2643 0.0005239453647048212 0.0059516919151270525 0.004194632723301995
2644 -0.00570530303480314 -0.002320146414583774 -0.005966447973306985
1665 -0.02839602605628247 -0.010098736803372635 -0.0032570587548223667
3990 0.0017143928815269997 0.006015866804786406 0.0008452646049084293
3989 0.004461485244123179 -0.0014187292822125254 0.002201223037418229
2701 -0.00064670676240775 -0.00028350404375698476 0.0023064982360848996
3996 -0.002343736802420601 0.006458280152084233 0.010946993900806503
2649 -0.006625334564949621 0.007668834766504238 -0.01377814003089603
1657 -0.003176057911951312 -0.005764826869490064 0.0032829171252090196
2648 -0.0003690037450899105 0.006588618833777112 -0.006822808217251003
2642 0.0006476641239309627 0.004936606370182122 0.0048259273850539495
3995 0.006653274034369067 -0.008714059642688628 0.0062539637039285695
2429 -0.004941412829555262 0.005270462009277063 0.009856442773596192
3994 0.002428395238164843 -0.004510959481329467 -0.025544702433852137
2427 0.006572713947795307 -0.007054588723891897 -0.00014393305303958488
2434 0.0004598084248437966 -0.004434424680060048 -0.007043109191599385
1658 0.0021063802991681604 -0.0029113827266856597 -0.004099790599957407
1082 0.0012632596064918156 -0.0029731979867196464 8.985246238203494e-05
2707 -0.001810049850744058 0.01744519347389156 -0.005344246932948837
1270 -0.0073712121759119675 0.014759537297787305 0.02993969296933773
2641 -0.0007721476617260228 -0.0022638141039609924 0.0024034120324494816
1265 -0.0009024448165961533 -0.0017837515684063071 0.006207125496860804
1263 7.745540016543575e-05 0.001657676318493992 -0.001563369562898818
1266 -0.005677293296141435 0.002658844361528254 0.004026535181845748
1271 -0.01491175601915082 -0.023927532137038646 -0.0033227936021795255
1659 0.000837337147515026 0.0013075969709935732 0.005343061562970566
1272 -0.0010813593989286371 0.025406968268242586 0.0050279625147262785
912 -0.028150039104509292 -0.012188198791483338 -0.016877624135285964
2220 0.011230244492469461 -0.009431710745373524 0.005252881380489598
3968 0.011263382797428174 -0.010589923759755244 0.02278363574327753
279 0.00415028434428032 0.0027084440602965294 2.0557763384187477e-05
278 0.0022719434449435276 0.012699862185913579 -0.0003747807631506101
904 0.005264626727552203 0.010481950034753534 -0.0008691615978805297
903 -0.0026102439568838156 -0.003186976311016138 -0.012187941815757239
281 -0.0014961673838129338 -0.005224307806553305 -0.005178342672328819
646 -0.0032226457599099484 0.0022377721579841057 0.014427519865358264
181 0.0013418953172194019 -0.0016679845670730655 0.0038823557866820187
280 0.008122806911218866 0.0010879737750348938 0.006442954211599584
188 0.0021411467015566617 0.012031357818685083 -0.008139012035926133
189 0.0018436372982143577 -0.023569519860304224 0.012577171303220188
3964 -0.004800115121270808 0.0014272403966881812 -0.0036052661019688815
3969 0.008413233979165024 -0.009514000604773669 0.01248177555241097
3963 -0.0006247437309274119 0.0026005980449206934 -0.002051732703708538
2519 -0.022692308744941596 0.004299733772857298 -0.024907502771213754
2518 -0.01624471131691788 -0.0035131151160626654 0.0026168920821793627
911 -0.011540668314384278 0.010419825807416152 -0.0074831815265898795
910 0.01205262103187209 0.02650553616802024 0.01438311054090698
2520 -0.011492375755167707 0.023499083740135512 -0.02770595257385668
906 -0.0043422510071694795 0.0027051786468654518 0.002923959504789554
2514 -0.005459626242599436 -0.009299501390994145 0.005737032654443706
2214 -0.006658210887316466 0.001521715116977409 0.0037187345177308656
2584 0.0010567241891831667 0.005007983057979168 0.0015656644092930654
3967 -0.02167117787754104 -0.014678978612486038 0.020756738561684227
2213 0.0002716435890394563 0.003887398331053522 0.00292564810222228
282 0.0035907161308493525 -1.541455470879288e-06 0.003640481141379023
3961 -0.004159338057339119 -0.0018838933466229298 0.009109368815190361
286 -0.004569876287479112 0.01434117310249458 -0.011611344372813632
2589 -0.00603597934666638 -0.00029460362130735967 -0.011624444966454327
2581 -0.007284922715972065 -0.0020899018499141112 -0.008077157658455814
2587 0.0110723675426146 -0.006970698345661504 -0.009512305723268406
2588 0.007058281329186322 -0.015851785775274123 -0.034285977818129254
3962 -0.00873291999275456 0.0033668112169985094 0.000686531035161537
2582 -0.0017513666444404087 -0.006495632291924416 -0.00047269253463068774
905 0.006258361599108904 -0.0005442512619318496 0.0034744865990269753
2583 -0.0013240980339560928 -0.0026452488578054627 -0.0034261715759563286
2585 0.0035297036405349215 -0.003442299390853699 -0.0023295656933620674
2210 0.001962066277912975 -0.0013831187557846215 -0.0033100338967344007
92 -0.0052597987455143365 0.010118498325354625 0.02023803989637051
2219 -0.00905329890257368 0.005304919552762011 -0.014273624836726543
798 -0.0003874754267807752 -0.004494993319379037 0.001198662853155221
88 -0.0031830789133936266 -0.00019220088724848276 0.004798450389620347
187 0.0015581084759586934 0.02359262817488932 0.020005401690109812
2753 -0.0005074653611115565 0.0040650513436662405 0.00028420561801497805
803 0.007078430145054407 0.02087656262770352 -0.013922281297222764
3487 0.003524627881446914 -0.0013054852809433963 -0.0029903401943540634
804 -0.014479106013825793 0.002452506657011201 -0.017669186052336958
3491 -0.030756541620295733 0.022616793068802314 -0.0013924973530430752
3488 -0.0024511196775132324 0.008707477668445502 -0.009562979380087093
2329 0.0015797693274000198 0.002367244425649995 0.004219681258208061
3482 -0.0005468121145720741 -0.0048965530138148005 -0.0034774917283927806
3481 -0.00761603078125856 0.0003037841602752126 0.00208473600394022
2335 0.001940531444165204 -0.006319857840559662 -0.02288288818219048
2337 0.017585615862271833 -0.005137295643722649 0.03169935847914276
287 -0.028208918914519272 -0.02422259890671085 0.009275970093132482
3485 0.0002782596572784879 -0.005622026291091274 2.62406954362319e-05
3490 0.03053497364369973 0.0046066099739475695 -0.018173502002458417
3486 -0.0035716882000375373 -0.003693030260905075 0.002664696543251682
3492 0.023596022949708837 -0.03458978720729121 -0.0011630791738859213
2752 0.009423067414697216 0.003804345338555001 0.0011738929946341064
3484 -0.0027675130093775305 0.00588121075008402 0.008720812474470152
3483 0.005004333251138055 0.006056357685410903 -0.004526665600786952
2751 0.0014995493130102316 0.0072271767326313775 -0.0009658201463287522
3955 -0.014547005669837389 0.026669133170056723 -0.03460113480326863
2749 0.0023177667875581027 -0.00192808031553236 0.003236817154323966
1116 -0.005314267776353226 0.001814412049715975 0.0027349668825229568
2755 -0.030686778487254457 0.012450777624595222 -0.009150263204555163
2757 0.0025772732369415564 0.01031498864449401 -0.005692148351987852
2756 0.003691533481015264 -0.006706917367662539 0.006091331161702875
2750 -0.0020406509717032506 -0.002410579572568898 0.001256931324030866
2692 -0.0030995815215647707 0.0027386837681857134 0.005386624675091512
1047 -0.006147711346350692 0.008426079558058673 -0.0012991978923814949
799 -0.008993498006773796 -0.0008800524655526249 0.015002820170834498
627 -0.005990619989808673 -0.003867364278123788 -1.998559464783993e-06
2695 -0.004877593687317652 0.018214342829522747 0.002857336060074717
227 -0.008194590130331048 0.010514351437775859 -0.009473640166960205
1048 -0.0029031765751348824 0.0024270368472342593 0.004048945508779691
629 -0.0024624427028780487 -0.003606689859615366 0.0009865806345581865
1051 -0.005882667476518988 0.009431178151550638 -0.0011458529500850358
221 0.0021412875113945495 0.003028183487340485 0.005824345574284501
2698 0.012004788342904497 0.02513664608021536 0.009754788064925118
2699 -0.0021961397739756606 -0.017793111760378913 0.013332322988789258
1052 0.009093896743650767 0.024476665965467912 0.0065420150010859915
719 -0.000523589947473337 0.033805331144539916 0.021872234314568684
797 0.0024123387227623833 0.0023942293577958735 0.006346060738221345
1053 0.0032207684533683873 0.029314135208062815 -0.010872800184140696
796 -0.0011097623366371856 0.004195494128499978 -0.002758420027501214
795 0.0012991514729530783 0.004300943245699673 0.007950694667425172
2700 0.004276992721953477 -0.00829352598873075 -0.00597126859257033
2693 0.0005041365761005034 0.0011830558036160452 0.0001351932747119401
222 0.005292536562505448 -0.003554258098753025 0.0021846075260164364
2694 0.0005638248699168721 -0.006743492619785781 0.0022697588653329474
1049 0.0031890030387840855 0.0009881818825861616 -9.40769032865459e-05
2691 -0.0031949129881587786 -0.0002896482666617115 -0.00035804532061749553
1046 0.003720286337706521 0.0024308790393081756 0.007352948601207532
2690 -0.005104834317536342 -0.002766460886678237 -0.004113377861367833
1045 0.0001007659623325036 -0.001474767472826526 0.004538756644057128
219 -0.007111608092220573 -0.0029343125805539284 -0.00604734209334795
220 -0.005561382855433213 -0.002433275212225912 0.0013717665952372635
1050 0.0005467820043132656 -0.0022930716825682036 0.0017113836695823552
1056 -0.007928793107028053 0.01764281840614351 0.014001705514104268
1054 -0.002605279374660875 0.010925207790608979 0.020703064371921775
2407 0.036193944071090056 0.018826784516807707 0.01854995687976315
2386 0.01820904514224957 -0.011279629257714585 0.013217063784778578
3479 -0.00471908255085868 0.022372635289000832 -0.037431403547673346
1504 0.000659080831023506 6.456523108739793e-05 0.0031701476420129128
1507 -0.025138358016851874 0.01654732483132836 0.03543099123565105
1509 -0.006441480964049984 0.011435307161087161 -0.000270454471406767
1353 0.0006402902763032746 0.001765093408832486 0.007746749617576932
753 0.013730685748696106 -0.0032006530023621967 -0.012605584797564759
1351 0.014323346381701602 0.012417600968147714 -0.021955836591558756
754 0.010702541241149848 0.028036190038930583 0.026282408899069177
1508 -0.00957427823574323 -0.0037181625578462116 0.002528191120370619
756 0.011967193031662418 -0.01039711995517954 0.015458147826785156
748 -0.004533796340547208 0.0013022384904952402 0.0013575401825156753
755 -0.005327723953732107 0.0029346663146282187 0.00799211982445564
750 -0.0020304188800217286 0.000391186166988854 -0.012487461978406831
3658 -0.022428904012356324 0.029849489407713356 -0.028460771962421298
749 0.0018737185671897252 0.009011831017701123 0.0013585348135050836
3654 0.0019427630755374007 -0.00011149283760167042 -0.005580361208020785
751 0.011418752993777526 0.0016487237986471256 0.015738020404100342
745 -0.002191347994572375 -0.0016641887848816606 0.004738916962821806
2381 0.00658499202208112 0.0036992407601971547 -0.0013290163406360516
1503 0.0005708389906357175 -0.005831366698452525 0.0030567416137379194
3660 -0.00888682922285338 0.001549611723870935 -0.026196597638071663
1502 -0.0004561965248055719 -0.006943323915225358 0.003250310949612389
1501 -0.0031798632387664712 -0.003961582878328095 -0.005604876865835246
747 -0.0005830187378068728 0.007788439262551868 -0.004904670556576489
746 -0.000996142474633055 -0.003660076096047807 0.0007883234101764216
752 0.018356535140048657 0.020127759972079988 -0.004184806794169714
1352 0.019400733503231012 0.00987011621510052 -0.0026452453340833917
1345 0.00032111743069589355 -0.0008930528647498581 0.0013679203029607243
2379 0.0006456251834690684 -0.0010958956092914425 0.0038765569625865957
3659 -0.03084255942617273 0.014365531575458737 -0.0052559533753800255
2380 -0.0006150756278467825 -0.0034889520499794004 -0.0019737731654850903
983 -0.005959421582928322 -0.023907797418599736 -0.011314204216172921
982 0.021284008156729303 0.022169422896988693 -0.018180220412382812
984 0.025604468904714076 -0.010037354726665877 0.003587050051340218
978 0.0032831065633683763 0.004343285862806346 0.010675792324283197
1296 -0.00827233988175149 -0.00663992305012566 0.001293669360598239
3215 -0.0101632452955527 -0.0068790155521385645 -0.02319133681377433
3987 0.005463942408894337 -0.002886374838173184 -0.002817663669278187
1003 -0.022146453643567914 0.006264681735216845 -0.003551751383190632
3988 -0.0045308125838137755 0.0038468236327334343 -0.00018358016977220473
1264 -0.006374912401157262 -0.001695480645772238 0.00851702848034795
2290 0.034341156385450114 -0.030091313711920965 0.004773133006353219
1262 -0.0028947256943885383 -0.0028319513832702017 0.00018315326926897802
2284 -0.005836741927705924 -0.00039564182562612955 -0.00413223919614147
2291 -0.0031403208892019866 0.011215259861378807 -0.013508283430051568
2282 -0.001072597614594665 -0.0016022112685915493 0.0011442696547866776
562 0.007345676739826551 0.028505955304690026 -0.0010228540674296362
2286 0.0018005947681115617 0.005106989549323123 0.004493799176642004
564 -0.028519958280074295 0.02030771746005888 -0.009414534005103394
979 -0.02107646266996673 -0.00288836119481798 -0.0029691194672023173
558 -0.007585148109377808 0.003458802140768004 0.009610567505455359
975 -0.0034121799250412446 0.0049412043241165715 -0.000505080386879133
2292 0.006806673085563405 0.03386298894837023 0.0037337836759284743
976 0.00027306958725776376 -0.005760110167757603 0.0028822628093126386
2283 0.0024588559410383963 -0.003987286939113448 0.0021775688629735402
997 0.009433531355867324 0.0025070993155033297 0.005962655233327894
974 0.001981120599914811 0.0032135822134141136 -0.00010092350914471427
977 0.00445170349401433 -0.007089071176340783 -0.0044296267601776065
2285 0.0019577261411803065 0.003224923696869484 -0.0012725398214670734
2289 -0.02070405200377031 -0.01801684971287349 -0.0007441764787964073
1267 -0.025866434575731494 0.0023144063594441977 0.0014560822950714174
2281 -0.004905918031854872 -0.012549790134305995 -0.006035471280859855
2530 0.005274655554724265 -0.024835627286357805 -0.004041912928236338
2531 0.02363748355567536 -0.004866571216008254 0.02132055863641956
1268 0.00121512983141562 -0.0333187808865948 0.011217460882599012
1261 -0.00013310718015615352 -0.012581408225795539 -0.003594619222989886
1005 0.010343504236907452 0.022663915205662983 0.006080019714434926
1269 -0.014553853880224576 -0.01824840343626498 -0.0007270137608583094
1094 -0.012175647427344142 0.00569685959614649 -0.002897908279487502
642 0.0009949670586929637 0.0019757017189068163 0.007286074939758013
647 0.018199062731622438 -0.012635058024517936 -0.001098982139148239
1331 -0.0032599413301567333 0.01071530511021238 0.02939850784293359
2529 -0.016446842700045504 -0.0431489923474317 -0.001947330411336067
3992 -0.02348565592611221 -0.01577289643719431 -0.013666424645618068
1004 0.007281799172622463 0.023168136750518157 -0.009754237415364412
2526 0.0012926289036859998 0.00459101478403942 0.0038733830677317818
350 0.001178490986845405 -0.004889794777613774 -0.0008515415649037953
355 -0.006389279142503306 0.013203105192966936 -0.0006088154293056739
1000 0.0012449549523110383 -0.0005394236966335924 0.0036026415394238872
2592 -0.01981596577995845 -0.03153668605975357 -0.00015949214044277046
2527 -0.0019486517255997325 -0.0009000699872986011 0.023477726665558092
2532 -0.00022659549913086217 0.012527847943894577 -0.005025955523911882
3143 0.0003517625522576808 0.025817304573709902 0.022803210906652792
2524 -0.003990330541388693 0.0007441012700603846 -0.0012156755774476457
3142 0.013181428369228967 0.008970725895135638 -0.008275563554436796
3138 0.004932980989955719 0.003937588089777333 0.0030111280260315346
3144 0.022637775447016367 0.01287681641988456 -0.004606451538553721
2528 -0.012054518288875167 0.014943443376559323 0.0031999294211468394
1326 0.0026254273797033344 0.01124270240904232 -0.0020363523749716756
1330 0.0320075423088861 -0.004832764388322079 -0.014143541046093907
2521 -0.0017352509108070318 -0.006730822755048261 0.005507109702940877
2522 -0.002646880958467482 -0.002057146818050681 0.004963846952084552
2525 -0.007344588923410474 -0.0005503198004359203 -0.004850551592999276
2523 -0.000329401422027887 0.0029529586180352487 -0.005461369842493795
2591 -0.010462378612409532 0.007367454078544122 0.024970533513710445
639 0.004073438083162432 -0.01102651025982699 0.0029196999220716877
1196 0.008724542981711334 0.0018557006129904879 0.040493117126535756
672 0.04302378191567268 0.01809381220007606 0.005029137465466601
1325 0.0007381197241066182 0.0016620896488061842 0.006385060729621886
662 0.0015455873414102932 0.0013983869722395523 -0.00447931604588135
637 0.004039912913948211 -0.002362014718905595 0.0052990805887076
1195 -0.02025599737878857 0.012670596206177153 0.010241083467394378
3952 0.0031957098964952805 -0.004376522613764307 -0.0032774170567922635
3951 -0.008472745762233624 0.005238860665530638 0.0031386422479515487
1323 0.0005614536519498276 0.0022001572875212185 0.0015958316807500605
661 0.0026789991579473644 -0.005141018636492597 -0.0027341616784057484
663 -0.007008837799919975 -0.0044913243156252105 0.002373648004324742
665 -0.005459616031528813 -0.005361343612968695 0.004980313245958676
2815 -0.03057401497907728 -0.0026395591595701 -0.0036749779856417985
664 0.0010965865263876978 -0.0047488226300497005 -0.0014251650857348163
666 -0.0009394205000791405 -0.00401399316115345 0.0027950121031902874
669 0.0221275385950271 0.0013291413151364775 -0.019129809244508002
2817 0.024325851813815583 0.00608326542234081 0.018400215260040417
2809 -0.006370978411420389 -0.004557791925358391 0.0023133024437631176
668 0.006578777566806892 -0.010869475679801451 -0.007921812131673244
667 0.017535349384088506 0.0015838317824552976 0.0157888194623086
670 0.016731087191655836 0.013773850656522153 -0.011387157812411416
1190 -0.003772743525919729 0.0012734814682209843 -0.0017462799452239398
671 -0.006023987718910961 0.028768715842645436 -0.004566045162276738
2590 -0.04006379054516915 -0.01777949741653982 0.029636164690889633
2586 -0.00017471670693832152 0.003559251473832224 -0.006638250331982021
3957 0.0034260634622042185 0.0006025116513110375 -0.0014284146743861932
1189 -0.008692799208428142 0.0012365749162232772 -0.006838230405311982
1332 0.0271245767646408 -0.005970909525993519 0.000113233422133947
3950 0.0014847563982917419 -0.00386782762307455 -0.005434943481004438
645 0.004783680158498909 0.00336415597283422 -0.009508097459158635
644 -0.028402265288959422 -0.0010534981102909328 0.007743658576028077
3956 -0.0011859201890100154 -0.03088030324294791 0.016101600347129912
3949 -0.004074157985885866 -0.0019375220081645768 -0.00015545581752922155
640 -0.003757673887271741 -0.002219092033138905 3.0375506784906554e-05
1197 -0.003114651037903719 -0.03200327848811719 -0.027137029970986656
224 0.006232706425384464 -0.041357296285335896 -0.0025813401689682033
223 -0.0021204622962210065 0.021879161779670406 0.010170279091160563
3480 0.009562517504020046 0.032095475010868575 -0.027149839322335886
3835 -0.005879090232963624 -0.016243193357938047 0.006610968290429806
3474 0.002495728326733025 -0.0049054786473023936 -0.002748247807861764
3984 0.006091697523689519 -0.0006895853297414578 0.014950929811277965
157 -0.004360272321355749 -0.002741462914378018 0.002493529445036177
3840 0.03157078402222679 0.023648182128146247 0.00690938101366264
3982 -0.020087613352446337 -0.014153863537541844 -0.010236994285707972
3838 -0.01952224284349239 -0.03690350973281698 -0.026032491787509708
218 -0.003146031826338519 -0.004490848234149051 0.009392412665544617
660 0.017084988316038184 0.030171251039649606 0.03110260521246861
3834 -0.004541622129332053 0.005009531071935734 -0.007692892458814895
3836 0.01992410998190869 0.013641156231404354 0.010320851113330228
164 -0.004826294018624356 -0.010581337625113596 -0.005110819470084457
3837 -0.002656741023833488 -0.004588445456443775 0.01793649490742013
3829 -0.0007687414506202086 0.0043868222869588806 -0.004080997684413498
2383 -0.017743050182990276 -0.030391026553244337 -0.012907399197835148
2384 0.002124369058597389 -0.001598463990877199 -0.0058821374646855565
2377 0.00047499169160979777 0.00697403368342537 0.002608364991746923
2385 0.021212272181954605 -0.00126379907045841 -0.012069870621228636
3830 -9.827031413667154e-05 0.0012519626265311366 -0.0019118593912611094
2378 0.0005704988695598119 -0.0018943981207527481 -0.0006428777413563949
3833 0.0006257787603024634 0.0034956888627926297 0.0009191325709256809
217 0.00015493573792417075 -0.0030172090301515244 0.0006633239738592745
225 0.015338918815714482 -0.010854575890737156 -0.007619554385237304
3831 -0.004482429358109113 0.002762931623222026 0.00305849005977984
3832 -0.0004550749167385179 -0.0028898714561697916 0.0005038300711801113
653 0.0016078288528987724 7.587474605245129e-05 -0.003715081766634506
658 0.014617063494644533 -0.022251419956068247 0.0036859125652352687
654 -0.0049863851473125245 0.001176530925761824 -6.249156014678472e-06
3839 -0.008216603261441963 0.003213775474479663 -0.014386235943489976
3656 -0.005750187431500736 -0.017450467991682636 -0.0023474654804686076
178 0.007289039281863036 -0.0007485309936674125 0.02365954411704385
3651 -0.004069742249739776 0.006441404081484211 0.0064310719481408376
3653 -0.0029342685439909034 -0.002976673819514924 -0.002587052646666929
174 -0.0008964901314866467 -0.0021164079776979103 0.004183529902444777
172 0.00347917443019238 -0.0019167706734031045 -0.004066232920157006
173 -0.002768280708328811 -0.00924037920283331 -0.0019269633506863511
3652 0.006410300956855583 0.0006804115085273904 -0.0023468553905180785
2359 0.011260324258040662 0.02417253499571761 0.0093645150644238
1956 0.01101691677663181 0.02754372254888745 -0.0068219902981488945
3684 -0.001497474807198164 -0.03705698994647018 -0.030428556945616952
1955 0.0019008245470969979 -0.010105786144078796 -0.03228949339738866
1632 0.00947847775836352 0.026955472203890052 0.006570937274521777
179 0.013047932331734227 -0.010493179455357821 -0.005646931561562816
428 0.009294473472728873 -0.020682847265965844 0.0001249935598545178
3678 -0.005224490565077236 -0.00042491337721251645 -0.0005560873274756723
3677 -0.0024603795948183256 0.0002672947265507225 -0.003052606994759933
2361 0.005732009769821085 0.006164850531218002 -0.00839883477619545
170 -0.0039544920117212876 -0.0016057971612136964 -0.00011335766009181716
171 0.00025326492047621874 0.0014873103863491319 0.0031937112734509096
2360 0.020924489138128145 -0.022667964234364967 0.011005167359188413
2353 -0.009416505858170528 -0.0005809855247684553 -0.002641400412610047
2354 0.004493062396184821 -0.00016609645373046787 0.0008302288584582336
3683 -0.009739648448002073 -0.00329810238849187 0.023331669801278675
1954 -0.011808650305988854 0.011725128276904256 -0.002177761073261404
1950 -0.007684660388287829 0.00023868246703567436 -0.0020676596525686423
1952 0.009727654778245188 0.004992104661012907 -0.0030582625454547148
1554 0.0027503418837103635 0.0025677337114550828 0.005621895211207564
1953 0.01077918085439984 0.013960565091578276 -0.006928529507676468
1945 -0.0033707418297126168 0.001203901338453231 0.01198478444817636
3207 0.001256404809488603 -0.006393186135239981 -0.0011763703716464412
3209 -0.00708664841689458 0.002189664085066741 0.0021930077523463027
3205 0.0001953825972008177 -0.006386055192283514 0.0058117437780021465
1559 -0.021363255515765074 0.005886123895163227 0.01697513656930371
2116 0.006448668203876667 -0.0022368108346245428 -0.005844501173219935
3208 -0.004038943370895584 -5.2331351996455825e-05 0.0017872691318673419
176 0.0011842096717049105 -0.002243714267583027 -0.02267260064143511
3213 0.022720840397279726 0.02199718242312482 -0.0040749470481088144
2288 -0.012798634096174351 -0.023804714854836026 -0.028072618068368894
563 -0.007590347370827393 -0.006777567366554236 0.017644772357213158
169 0.001146210950443802 -0.0041054679379214296 0.004174303003856241
3212 0.017216149834981095 0.011696316437808472 -0.006078150670793578
3206 -0.0019490299034098009 -0.0002977345668952373 -0.0026964508059428315
1557 -0.014552396157536588 -0.022059988622860092 -0.01750049301270559
1555 -0.03149143188957803 0.01295339079537166 -0.018530743999470425
175 -0.00901271096038139 -0.0006360459742036012 -0.01778910262291046
177 0.0021067878509492257 -0.015799381231211274 -0.0032702891235770757
1947 0.0042311802721257796 -0.0037932047604609513 0.0027002011730800106
1946 -0.0025745458199019074 -0.0014654810335395657 -0.0023889558724589904
3211 0.022905885788541212 0.008117902405992 -0.017263415203730214
1551 -0.0033030882445603347 -0.006776144759077059 0.00685522993607207
1552 0.007531682748174762 -0.0038318344325689872 0.002227850416516809
1556 -0.012178185882303827 0.0014642226456261151 0.021562228971674174
1549 -0.003216866552467201 0.004845263400929503 -0.0035727173843609606
1550 -0.0033349534385484613 -0.0010990060997719357 0.006804399237116181
1553 -0.004414372012346529 -0.003908566982643007 0.0009033488405066268
1949 -0.00023021181128500223 0.0071735253132846665 0.0028564279619508657
2287 -0.006055562949771112 -7.436021083048572e-05 -0.006776936428605944
1895 0.0026313558722578386 -0.003712094605422948 0.014057796278158365
914 -0.0023810019683089233 -0.002736975110701071 -0.003604613597607372
919 0.0023921139468723717 -0.00027371689657972596 -0.011622980513531897
3886 0.02224182992692609 -0.0010417534225224303 -0.009995182876851324
3887 0.009772496358327493 -0.011968409913308293 -0.013209550031347243
352 -0.0007799242917704365 0.0005223400135550012 0.0004589047229230322
1889 -0.0005173977373471385 -0.003985409787608307 0.001942199028703064
351 0.005771784105667819 -0.0007295865468403107 -0.00425739363169819
3882 -0.007537386504367167 -0.000357122081986241 0.004478926910261061
1887 0.002287256926052571 0.007204722497185831 -0.007944291684083168
23 0.0006251345340498668 -0.016169932210459627 0.013949871631626962
22 0.006821380996171344 0.002702384031195467 0.016119365772987324
3880 -0.00029828815508306256 0.003122976682636308 -0.005614975796867995
920 -0.004307193233118185 -0.009251236509067048 0.01329044882864568
913 0.0029135660582268715 -0.000200755806697247 -0.0008105133804110163
921 -3.4635069686849854e-05 0.0022188055648983793 -0.016013287349784428
3296 0.011949390640002224 0.04041530820310951 -0.03407485532954735
1896 0.020358170563794506 0.023206221455850516 0.0029991592924599676
1894 -0.022223959604541817 0.004645197261002825 -0.010561217178579253
1890 0.00939637988785232 -0.0007887658458360957 -0.0038249604066328295
3295 -0.003941457491380843 0.030455065749895927 -0.006780668528691535
917 -0.003005771347954731 0.0011778772161189278 -0.004953792095345257
923 0.01843160883171458 -0.019875590497029406 -0.013855490175312658
3289 -0.00011092397991220643 0.001110511752802289 0.0062677775953197375
3888 -0.013453801064889278 0.03103567444269257 -0.029503452189016927
3297 -0.016019738589750546 -0.031190334945377887 -0.0027471198838578625
915 0.0031476101476398213 0.008346129291870242 -0.002222855824296234
916 -0.0026071516269170016 -0.002969388486050257 0.002509836355322531
3879 -0.004648433498644686 0.0025397678500765557 0.010185143373199144
1097 -0.007952981884619738 0.002674274642856894 -0.0011879975336171068
1098 0.005074855449102123 0.007346831094885839 -0.006087009388584985
1888 -0.0020609601770009162 0.000852041064642114 0.003866029687012984
924 0.011303443145162066 -0.0053338284148078344 0.009852777171499535
922 -2.1508560488074106e-05 0.03134063192038836 0.01446026906631604
918 -0.003242607889334861 -0.0023776092998140223 0.003339472652451535
356 -0.014315357266862724 -0.00563772082434369 -0.006290335697903537
349 0.010300799819004242 -0.0006882352001802711 0.003928069447342618
357 -0.010900283049334453 -0.005626112904498424 -0.01068431150685512
359 0.01074764125334815 0.014441895026232362 -0.003886114721404773
3292 0.000999209001475236 0.00022154492585435288 0.005922188654708496
3290 0.002849580811089122 0.0026469072955122436 0.0022576796552910548
1104 0.015821755913796136 0.0174222502054169 -0.008883132685323647
3291 -0.0005992764293683577 -0.00021784916726174544 -0.0006041979107723275
3294 0.007127725224779393 -0.001147237674824742 -0.001720858977258899
3299 -0.013059252223119128 0.011626369628475148 0.009431344804342554
3981 0.012346941979599242 -0.014188546625782554 0.017274126078719376
2849 0.000223846950445466 -0.003185289705612313 0.0015955837563128743
3974 0.006272507889328955 -0.007573108584177568 -0.001017617462372536
3973 0.0021765300670057333 0.00786589070303955 -0.00047455255056447877
354 -0.00010613284113428717 0.0002138432845992019 0.0006956399786232105
3980 0.029511482910736613 -0.00261396822913646 -0.027883862339933688
3979 -0.02908995698798686 -0.019805017234026136 0.02005931961451663
3298 -0.011510812340154617 -0.010772044949725139 -0.006559659588122762
3293 0.001406384760468441 0.0013758379727998565 -0.002121087177870476
3976 0.0006875438660364216 0.004520626909969946 0.0036180229953547403
2556 -0.012558876223398846 0.010702584458827167 0.017977159023234768
358 -0.02134489595733602 0.014168712637294746 -0.0001637785745576806
360 0.004349913742867334 -0.0018414493661931745 -0.0034978294117069195
3975 0.0009160842401565112 -0.0016814695228674975 -0.004677287305228726
2846 -0.006348785859163768 0.0006002090503955719 -0.00397836741745856
2851 0.002722737766496563 0.010714355640881005 0.006602630948928898
2855 0.006945739752599989 0.011992079495156729 0.010876287232826127
2854 -0.0018980872884694592 -0.004373372932569377 0.001902554499592448
2856 0.0015738797071951146 -0.01234750862230715 0.005079237113701659
2847 -0.0005018047860362979 0.004793012231787433 -0.004501037155876652
2850 0.00037991152603106975 -0.0027718371971444788 -0.001455990256414031
2848 -0.002546328067230472 -0.0011482519003450295 -0.001938134153545477
2852 -0.01240361658018557 -0.006683809572445596 -0.008402731434176407
2845 0.002618935713509181 0.0032441364544948444 0.002123435461117532
353 -0.0007877068341853918 -0.008093089409522351 0.0026688543652528328
2554 0.008306143383067642 0.016729005353436056 0.016975933214096454
2550 0.00039829283632382824 0.0010586974852018862 0.006043605702081814
2460 -0.013002303992066975 -0.027447105161646317 -0.008806524256394728
3977 0.001864302476327937 -0.006411481274200935 -0.003547325423151708
2459 0.018169130315562384 0.006864003501756513 -0.0015795176371308055
2824 -0.000573953122576022 -0.0014762528039950484 -0.004840621708289272
2356 0.006597147769462422 0.001260694636351408 0.0014769455327719731
3978 -0.00722359330053347 -0.00838419345962118 -0.004181985986171377
2548 -0.002370769001066347 0.0031187461251844235 -0.0044168180922140666
2551 0.006230523954085257 -0.000899939415365816 0.016008182390491177
2545 -0.008344844136511244 0.0005477607054171234 0.0043311596659358145
2355 -0.0002930429153622194 -0.0020207986550114746 0.0027849864083158
2553 0.014043884395676606 -0.005331291115548799 -4.478871341314983e-06
2555 0.013643536743525841 0.004153401080729552 -0.006028633414391544
1379 -0.00889374395169425 0.009914184057494408 0.004802859065725239
960 -0.013911550929976129 -0.0068359569471301345 -0.002454227655869609
2549 -0.0007034940890989289 0.008225721093451032 0.0030353896108674438
3983 -0.00701030618442369 0.012019903112743202 -0.011203711668993532
2362 -0.01694898344660267 -0.007927692784785466 -0.01411506088182131
2546 -0.002369676261482041 -0.0027763239881579164 -0.008193227802183371
2547 -0.0019185716466629088 0.007249588229891551 0.010452285821003472
2364 -0.01378670081604332 0.011280218228796114 0.01308390683600262
2552 -0.0009536310167099977 -0.019457775540787217 -0.0029863710544670847
2358 -0.0003638324352001554 0.0018852244383441913 -0.007314570750456662
2363 0.03697761282697466 8.263802830119384e-05 -0.008929999192527752
1624 0.0013186446397607102 0.0042445732183191654 0.00982675193491846
1628 -0.003402727390297617 -0.011865666768962052 0.014571574212165716
1623 -0.007822442455634498 -0.009206606326583041 0.004771437658210989
1629 0.01738007168757199 0.0023349818849319327 -0.003189485984116949
1627 -0.0026685795663948073 0.006545070116066604 -0.016581278434501398
954 -0.0012017185792244586 0.0009865147628547468 0.00015228947515511475
1621 0.0043141490335174655 -0.003957925999408898 -0.0022366149006298203
1622 -0.00021173883045985323 0.005343141066628227 0.006203876289106305
2832 0.0006032030707517241 0.0013505528196436126 0.015576553109859963
2357 0.007050624008423176 0.0037012540159607477 -0.0011485116848745512
588 0.008814138734615713 0.0012396555107583474 0.0009191453808637441
2276 7.246874289932169e-05 0.00025555007064490193 0.01410097183189563
2270 0.0029788632764194837 -0.0014875303691250696 -0.006830943839520232
896 0.016373143683909533 0.009942424883507618 0.002858620048813723
2272 0.004152247029849654 0.002658190317966073 0.0005636344308083762
1626 0.00021545277371576353 0.0015691050074347118 0.004029030626670104
2184 0.007640062781600321 0.0004256412818355918 -0.012171428637920397
427 0.0075033558729035565 0.03935450545561218 -0.004311860971816655
1631 0.004840112938058145 -0.00640540749207322 0.017472655667834527
1466 0.0016561795423507323 -0.002070684850314937 0.00083711770373383
1468 0.002496978247785678 -0.0011597811018982346 -0.005854016305631786
423 0.0002885366445704536 0.002025797989548778 -0.004927980368591871
1469 -0.004162977457115689 0.0023185688154702734 0.0024173166939746964
421 -0.006709740274021434 -0.0017940530507737724 -0.0009662720922846986
1465 0.00045887993559037485 0.0019524834281489701 -0.00417975521212216
1147 -0.013684158465641779 0.01512602076215293 -0.0156717264252084
1474 0.01997168459499204 0.007430637094845413 -0.012380246588644941
1467 0.0017977617350008325 -0.0018242212690724288 -0.006930797775656125
425 -0.0019440561573036328 -0.001326104666795169 -0.003489787174516596
1470 0.004954685257744446 -0.0031758942256716245 -0.0012810187395555328
1475 -0.0340950538598715 0.009843154814353928 -0.00210123068102023
1476 -0.006364018448074239 -0.014725106165114783 -0.011446338205761984
1472 -0.033580386446958765 -0.023752320704527305 -0.0003973942177863196
1149 0.006240065513729072 0.002231171503788607 -0.0025929875516463884
1473 0.023876845900036924 -0.007274067399426565 0.0043493977916293875
429 0.015281398223602262 0.01717223049741401 0.016888502341785103
422 -0.005667560574555292 0.004493137196566045 -0.0016745667036966601
1141 -0.005488437269016343 -0.006717815671292242 -0.00041015798381837217
1148 0.0164681394444438 0.010114025761319435 -0.014953389388943309
2269 -0.00029928067158257717 0.003621649904606077 0.0037558618357581308
1990 0.0081155941258637 -0.0032213621946051638 0.008827763373100567
531 0.0062696564355321435 -0.0014694687385720918 -0.0014307023520531345
530 0.00575590511755672 -0.0005584443342450241 -0.0038803634499598168
532 -0.0032485138668391696 -0.0007248189450968913 -0.0008719420373726764
1558 0.00799147389312487 -0.0033819954065508148 -0.00951752772718581
3364 -0.004972094295618941 -0.00513407947433878 -0.007714965768066345
3366 -0.001345427209422598 -0.0010320676226787664 -0.0057911127250446556
3372 0.014563753844844466 -0.01496830380099603 -2.3543401402035386e-06
3365 -0.003051201754257612 -0.0019703525302995064 -0.0013264361933884457
1948 0.0014879510305288335 0.0023121526013853764 0.0034465895202966585
1560 0.0029203395999894055 -0.01324227472978185 0.0061943326118134995
1951 -0.019587256281899824 -0.019432718967865182 0.013312207412972387
1983 -0.007698361576165322 -0.0026322105320385858 -0.003016979518138315
1982 0.0015355597861120823 -0.009652388911676356 -0.005955065548233716
529 -0.00719001772782941 -0.003364672042278268 -0.009093919151765079
533 0.0007128954282744405 0.0013556505477586376 -0.0007055460400386232
535 0.005044373788845512 0.0014783099634592012 -0.006971899157376922
536 0.013191138227532526 0.0027777547213522873 0.006370663902664946
2275 0.010469218531663113 0.009974110779352167 -0.012574942122771288
1985 0.0031056457983913697 -0.0024635897702976273 0.0014789603670860951
2120 -0.003449578343935668 -0.0038045829603529455 -0.017524418992936528
537 -0.0036404977699520404 -0.006234229828799285 0.006739657820674433
3363 -0.00476894018442701 -0.00966820758365049 0.004350875007045445
534 0.004484262494181794 0.004091352092629191 0.0051307164783792455
2277 -0.008262589819727854 0.012040588038749769 0.01040563643906237
1471 0.024807709674674543 -0.012840670424169526 0.011642499830212469
539 0.010675020998378344 0.01464297958587663 -0.008155467137266476
2341 0.001994826300701301 -0.003576200979412519 0.001373232085723355
2794 -0.014116853303975175 0.033371553383272544 -0.013712325041575461
3371 -0.016726054059397887 -0.016365816365666853 0.004193484293043715
3877 0.00048467666808232196 0.005310632609335448 -0.004873922418533253
2351 -0.00024762757632967327 -0.004062792763756991 -0.0007354393162437317
2789 0.0027313236322520033 5.795519129493668e-05 0.005459517811868927
3881 -0.0011798380777321086 0.003404440887928437 0.005579228001285459
2796 -0.007329867843386845 0.005618256428559914 -0.035960420917381726
2345 0.0024343543468291493 0.004119205453005214 0.009319020774712338
3370 -0.02516107870814332 -0.004361997335629054 0.017746352070590228
3878 -0.0032348224475137284 0.00699053116036511 -0.005584260529552764
1886 0.005992587804227842 0.0024274638432549545 0.0024914702693998904
2795 0.008855982400079924 -0.030136610980491804 0.025460428929768904
2569 0.00471569472649554 0.003720037216839686 0.00904072557860218
2570 -0.0023637038413023693 -0.002527488037374578 -0.0067076190921486955
2572 -0.001930365222240679 0.0003106565087718284 0.002624351766521673
2571 -0.001642082088929531 0.0019342654415208697 0.0028904569235733792
2577 0.003276241358157055 -0.013760218086849161 -0.0017581087805239868
2575 -0.0006084760081745209 -0.0011963545543524755 0.010685980100669255
2576 0.000829376191059474 -0.01632311867996416 -0.006453828315976084
2790 0.001187491192586957 0.004085891087442089 0.001915681644239618
18 0.00352893638294984 0.007705073349843879 -0.004035337177784412
24 0.007865564036522825 -0.017681925447774582 -0.00029099368768396687
17 -0.006002703333745593 -0.004123177760632765 0.009441121491896548
3803 0.0015225429436761526 0.0008854749828018102 -0.004299953351798379
2342 0.006708779074932741 0.0024328943748345554 -0.002521253355909666
3798 -0.004246991947508279 0.0029779725887828777 4.116983617427043e-05
2352 0.008895079122031087 0.015322271373732514 0.004628565090884748
2346 0.004884617247476953 -0.002470576295212821 0.00012719986093521883
2573 -0.0006348700533706376 0.0016280961651964096 0.0016298519554430197
3804 -0.006599933151982845 -0.004479526728151215 -0.00147516231666976
2343 0.0034370790741033155 0.005783913428685693 0.0005949157945609985
3802 -0.0079571036954229 -0.01404878189415076 -0.013227554564291387
727 -0.005252766695553181 -0.014504103824445707 -0.012807083627784176
1892 -0.018593369646282828 -0.013677060473491546 0.010794087865543448
2853 -0.006798470901290823 -0.007323893860681616 -0.007802362495423884
516 0.03288036550976482 0.007766805952025265 0.0016882159545750853
1891 -0.018161923793275036 0.023712458601468516 0.022645433804727576
515 0.0034601841186499616 -0.0033135082739291634 -0.02808891710143302
15 0.00016823964179357712 0.001439324945208219 0.00012687899517394344
510 -0.0005852997628933473 -0.005291390223104783 -0.0009407368834460165
1885 -0.0026386623187019463 0.0027197386642831755 0.004959459853628929
19 -0.02055537416902648 0.006889482680211541 0.006480024472872941
509 0.0012526495861155198 -0.0008517660127003309 0.0019016440925222246
514 -0.013355274701551744 -0.0038872058633179873 0.007903630105361764
507 0.000677384312763489 0.003636828276998604 -0.0034033941253249654
506 -0.002774763013329693 -0.0032980384497754145 -0.001576232784006901
3797 0.003851792655697763 -0.0005537714912175242 0.0010383775378887401
513 -0.01262616115667164 -0.007585631488352921 -0.0035518905585299305
13 0.002107936599680307 0.004631568579058838 9.486548806609208e-05
512 -0.010721582314856329 0.017527749836062808 0.0036504787437412994
505 -0.003436443797667294 -0.0033181367508636505 -0.0008557694794576216
14 0.005431056119223948 -0.004480948562062977 -0.004317094161797119
16 0.006379954449128572 -0.0008267142410708746 0.0020970371523787905
21 0.007217963338568274 -0.003259732112647013 0.0061531521845672055
3794 3.8745632952800235e-05 0.0014853357008130683 -0.0010588186504887648
3800 0.013033907788808164 -0.000650673581824704 0.023721580807600763
20 0.03346965911108174 -0.00907919192074034 0.008305702025837683
3795 -0.0033984750899909303 -0.0029210771701734446 0.005463310903813878
2133 0.027264461762947174 -0.0010614969016576239 0.019728949065807754
511 -0.012967762750519498 -0.017529898927947266 -0.010933559577243335
1027 0.0005158562882334607 -0.00030540499013068535 0.0017515324431438015
2125 -0.0017386078269887154 0.006424793093474397 0.0003429412859753397
2131 -0.03543824037519342 -0.019072487237045785 0.01329319656642452
2126 -0.006470249279292472 0.002831878587813387 -0.0025199912190933993
1028 0.01830549478666242 -0.04047772011273086 -0.007045321052135376
1021 0.0028584412741671354 -0.0017946904941033741 0.004236916197017863
3793 0.00402483143216768 0.0027976294030147846 7.515382681642275e-05
3796 0.0008821178588310053 0.0007663152383450897 -0.0005415819033234904
3799 -0.0055583580629479466 -0.010474978025568316 0.011073852649162183
517 1.2725621094928022e-05 0.005432234828538873 -0.005956893882273355
525 -0.031230021048499295 0.004390333038461489 0.005396034625043578
3537 -0.04893674942644137 0.01044017972104896 -0.010340976731344357
2823 -0.0013320662009134367 4.875084515878047e-05 0.0012352449289642626
2128 -0.004384391781876187 0.0025705616123361335 0.0036820382955008585
521 -0.00016754112882711675 -0.0061377366692367714 -0.008413206180005402
1030 -0.005914432988715813 0.006097257158463436 0.002584993337507071
1630 -0.004171135510143878 0.010485924600072697 0.012244583537464911
1625 -0.0025226073569781316 -0.006910217315083403 -0.003199193408840468
2825 -0.0028527051206025593 0.005200682381824807 -0.004593146230849644
579 -0.0033078337104833094 -0.0037887477199229063 0.005225277743091011
587 0.0020832691391853577 0.00700789527007187 0.021021554750003484
580 -0.007105760575204512 0.002653121333000026 -0.005251954894070871
1023 0.00228751114263383 0.00432881046785991 -0.004272675462070367
2127 0.0011376728421225368 0.0065400862980942 0.007875450488346376
2132 -0.0042351744664855745 -0.01163679684085674 0.003677271724768263
2831 0.021453697431783075 0.014915539018139629 -0.01907103520248601
2830 0.0025128519756855688 0.005561893767113328 0.03309006462144715
3535 -0.018252967300475945 0.0030334805123821873 0.031847715347789
582 0.0015499118557538239 0.005577126951093101 0.0014417757335783905
1024 0.00156214921264017 -0.004797734018944868 0.0015942566721525247
2826 -0.004285693589095268 0.0046670562497403804 0.00016137826225997868
3532 -0.0010921206865258585 -0.0019809005552036533 0.0006754793620118259
586 -0.012037679706215613 -0.0062805139043220675 -0.01398786510674243
581 -0.0013822654047940253 -0.004342726607143587 -0.0031170415709990567
578 0.002060304710238325 0.0007160246523165509 0.006823507931868716
523 0.027878674323670326 0.014767998252167932 -0.006266054669501139
520 0.0042644015905840636 -0.0012848936047528201 0.0033914462245180402
518 0.004767443789231529 -0.00022374404905002547 0.002288882019410333
519 0.0005549279488691308 0.010785284686105557 -0.0030672418442399124
524 0.006444424052972573 -0.013143305397601834 -0.02391186358580349
3849 -5.86075760303622e-05 -0.006165612918294228 -0.014390739385083676
583 -0.0014971688548727593 -0.0016280207486371284 0.008674906002980525
3335 -0.0022101851323649844 0.0318339849341362 -0.0029780301526625415
1144 0.0025297412583412506 0.0015213004669184132 -0.005767133476056311
1142 -0.004558864017382121 0.012076630622936952 0.0076478820891452606
890 -0.0004389292271452073 -0.0022487344137177337 -0.0002802255090150406
1143 0.0003275033445530443 0.004166125193465613 0.0038572397078146
1145 0.0016984172925347386 -0.0013024804960223265 -0.003987472166937246
3848 -0.0049548541964496455 0.0011347052349604952 -0.022078853674795087
2305 -0.0014696662738775698 0.0011764314017509976 -0.002051639530284334
2306 0.0005306965654080482 0.0048780435927260266 -0.0003411617983465108
2313 -0.003711207536750876 0.018151461635439414 -0.012209315784473677
2311 0.018476293486102136 0.014787603186249505 0.006133480650319771
2307 0.00227484284384193 -0.00513512509860318 0.006230874326240164
3330 0.0006019641998581801 0.009605892324495382 -0.0074641910022681425
2308 -0.005016389711737587 -0.004343133662038895 -0.0005058969018114307
3334 -0.03111845525235595 0.03135126315301944 0.008952920350162418
2312 0.016936072513078406 0.016455026738069298 -0.007780436482446878
1151 -0.003680626228643857 0.0003160481737461391 0.011311830507217195
2564 0.00024032069608359184 0.03104698581761183 0.002101282649116231
2557 0.001826209852549061 0.007135781255445746 -0.0013177476586651285
2563 -0.01066412986196785 0.0018410762956087197 0.010952811261451438
1146 0.0019796320118484817 0.002259723905379128 -0.005732964518304354
889 0.008411631349664859 0.003515547952285208 -0.003197767607736967
1152 0.006603180879570625 -0.012492797964827685 0.016906390378494833
2314 0.004976457393351255 -0.012901466462841077 0.01975365700824728
897 -0.015172875428628914 -0.008206115797653702 0.0033958670567154833
895 0.00952653577218198 -0.008100625093457449 0.01657583603941387
2309 0.001760005359396164 -0.006966787317181275 -0.006642107770444228
2646 -0.0005974131504361234 -0.002380393657621925 -0.007914103841677353
2652 0.00988162059882254 0.013470667047134666 0.028988478427872687
2651 0.005323046465680764 0.019546311436160684 -0.0009164608480801062
2650 0.006493688253783693 0.015417759481107183 0.01125394408561841
899 -0.009774087024129297 0.026418674922120067 0.007073508432282112
898 -0.010062118993891927 -0.011261283886222113 0.022359565560488813
2267 -0.0028688623764775456 0.024290663411527507 -0.015289776859238095
1088 0.0009592036725239695 0.0049393124061291385 -0.007535532753653991
894 0.0013201378782447084 0.012166890830507506 -0.0053755867428364155
891 -0.0031147293205232456 -0.005790476201872686 0.004664836622987351
1992 0.007262463592995589 0.014807618475587921 0.004751621534960114
540 0.004545092031939194 0.001654919650418065 -0.011345137578760057
1986 0.0010746749061035861 -0.005648225261338578 0.002198861077286601
2256 0.02033529966803586 -0.002826864282079885 0.020464993945378054
2250 -0.010646236152907766 0.00506675593892377 0.003856207615495017
1163 0.003497053518859737 -0.013425884039348574 1.2646238415559556e-05
2249 0.004903307372820708 0.001870505849570451 -0.0010703659678655143
1162 0.01093541654198267 -0.027472877602185756 -0.02178913983790174
1991 -0.015464464336058257 -0.021890858878049622 -0.02309526471708168
893 0.0015632781825661941 0.0006335937917829817 0.0002487338792046217
1154 -0.0005634041229536415 0.0038727631262890447 -0.003155440031529467
900 0.008383365114827538 0.003935688637810982 -0.00011688000482830455
892 0.004324015529358898 -0.0035086742245158263 -0.001810541205697088
2254 -0.03554316829845546 0.013783500674911284 0.011250399146215834
2265 -0.005366032147596511 0.0025899425721855173 0.004225297411262804
1155 0.0018553231597306257 -0.001991729236459893 0.0009472083543839924
1157 -0.004791913134092006 -0.008166662109404166 -0.0022686978995214366
1158 0.0038985168665974733 0.007132904987754901 -0.0032246435054384443
2255 -0.0044012346902084 0.009129348803878308 -0.008105096676827118
2263 0.016787236714448876 0.015593078089831736 0.004997442571336655
2257 0.0038163049532082428 -0.003411361026426812 -0.005086916117648138
2247 -0.009300025716438636 -0.005734375587527184 -0.00426824589771544
1663 0.019682626173723353 0.01026465071488884 0.014804377901626233
538 -0.006382817656813737 -0.022428897825536004 -0.008775275694621516
1984 -0.0021660018558270254 -0.0006539347443743888 0.006096641226836262
2260 0.0058235418094891534 0.0023637522150029427 0.0022627252192885575
1164 -0.014334057555076272 -0.011952417401292891 -0.022638190339042203
1156 -0.002190099175457648 -0.0009326733609827801 0.005671690619675661
2248 0.0028298118257175185 -0.0016735857941650822 -0.0036271986307409715
1664 -0.02932882039014265 0.0005589299359053357 0.0207976857712555
2246 -0.0028765862069566927 0.006610999667213386 -0.000764958009240197
3094 0.029957904453859662 -0.008520043936995228 -0.0035347180076252716
277 3.162325479695746e-05 -0.0022023240787532217 0.0007111184081042119
2347 0.027947287471795857 -0.02536811413745954 -0.013243654552317127
285 0.01455609747331242 -0.03088522643331205 0.02179982535328627
185 0.0030832991513976196 -0.001014540424505916 -0.002032828680686254
283 0.021956747560882253 -0.0017590353020734697 0.03049158595286189
2259 0.0013412235041971895 -0.0016035339329383287 0.0059348892581101344
2261 0.0020686138311267715 0.00016687954785437164 0.0034639855933430845
184 -0.004388971932047323 0.005608439836390229 -0.0008903130511538407
192 0.00926177212544745 0.02168358227915527 0.019030024974164093
186 0.0061470550145135685 -0.0028051961131935767 0.000680704316424345
3090 0.007484364032150509 8.422525989400684e-05 -0.00589371880032855
190 -0.01707714731028146 0.021687247787292724 -0.0016012108013287508
3095 0.00594738496302472 -0.011479813233405424 0.010095184171757414
2264 0.00039411417310661535 -0.0006274447012819317 0.006066574948461835
3089 -0.0022882850680201617 -0.007089826007551407 0.0023438440052995294
2344 -0.003519537969996062 0.003099494032289114 -0.007315761101410914
2350 -0.0060459821281833165 -0.02095449772834057 -0.018688253548025415
2574 -4.420873484135988e-05 0.00032869960545439046 -0.004102670307534067
2578 0.01328656869945973 -0.02775366975993841 0.024637786272790112
2580 0.009097075053698318 0.017513200829753727 -0.019781720870144997
2258 0.004285962252994467 0.0031095898885016705 0.002003420371546654
3086 0.006215077394414345 0.006509462733626466 -0.0041211426100827755
3087 -0.0011062550143479946 0.0032644524613243075 0.0003998093889249278
3088 -0.001310859266821902 0.003970257250573641 0.004391923773528879
183 -0.002138323316414742 -0.0032897999406004963 -0.0015488194064180812
182 -0.0038304488878613146 -0.0040979803161346265 -0.005940243374778116
3972 -0.0048969212309143235 0.012712161878416839 0.006323137063082873
3085 0.005504214216560467 -0.004718458402056348 0.0009795426366835192
3092 -0.034632231014351374 0.006658722978625147 0.006418728436512253
3093 0.01195640823332319 0.009533366566972658 0.027305736664840468
3971 -0.012149898711203273 0.0040293306389516705 -0.012408661412255042
3966 0.002481146023589455 0.0018670104671402931 -0.004776557597322226
3970 0.019528017063953244 0.001499618934994046 0.022776343984585
3965 0.002251888695634677 0.002485125059139425 0.0015406940973986926
3091 0.02456486921555985 -0.017979481131735264 -0.010586984494857319
2332 4.495548092479159e-05 0.0020870349559657417 -0.0006576084709936822
3152 -0.0014458009323240729 0.010445258764357495 0.009832386434810379
3533 -0.0011669293631441848 -0.0010889576730284962 0.0009413802534353606
571 0.01131960996588979 -0.00020423366589391025 -0.013234749495019106
1411 0.006484149258644365 0.01762686175636007 0.007048777845431322
3156 -0.022110464390853374 -0.0012310664693593277 -0.007077213200925529
565 -0.003955560492165247 0.0018406851748778315 -0.0018471539670167564
1412 0.005191816069019868 -0.015056153912510119 0.011742218507464654
1405 -0.002813405655896886 -0.0037529102774978753 0.0006908361146815541
3538 0.0032029027644675918 -0.013265093294371734 -8.055327873643991e-05
1406 -0.0032141327991372353 -0.005583445449428405 -0.003437188018726039
3151 -0.018223548193148826 0.0026513756444095835 0.03612183658711324
1413 0.013066125378984373 -0.01604550409067282 -0.005545645908421997
3153 -0.020411774523047547 -0.01949620592169392 -0.00024131207726450928
3801 0.0020051489511543085 0.028837551869320428 -0.018948846730449356
3155 -0.0017437308257518224 0.00816054430524266 -0.004902882117525387
3150 -0.0023930075976166774 0.0017940832781090594 -0.0034118043070958267
3534 0.0006199393106331053 0.004265825186645218 0.002827277067949434
3145 0.001958248253302236 -0.0003117496420298804 -0.003719876185761648
3149 -0.0047783298999688854 -0.0004550119325283159 -0.0018747214946275778
3147 -0.0027368948207347507 -0.0023154446190628204 -0.003823720755681759
3146 0.0045328911738357165 -0.0023048144863620852 -0.0009518924249261464
573 0.028893644556222477 0.023235611218480435 0.005419203542686292
3148 -0.0018973501384853399 -0.004136945377629784 -0.0024024858959665295
3539 -0.006871690591902809 0.005898695075911998 0.00448124245650422
3489 0.004120808904597764 0.03312196443987824 0.007182865655802528
572 -0.011919299138322521 -0.001966437554603079 -0.009363957001856509
3154 -0.002114425938699349 0.008215062860483624 0.0005309997988937889
3540 0.007263158648009937 -0.01309248688924884 0.026028522341466045
1407 -0.0050738551982282 -0.005376036011270227 -0.002174680026650974
2336 0.02352771994361653 0.017628948620156074 -0.0034960618659166253
634 -0.008399543893176861 -0.0008684668264797965 0.018816433882509434
636 0.02000387332130685 -0.02317589451129689 0.027160503753268932
630 -0.00450682915684186 -0.0026099910068985693 0.004063357866638574
3841 0.005914429218989102 -1.1774626067815242e-05 0.007775804923948324
3847 0.003070934638273831 0.02265823195967716 -0.0018587664589244854
577 0.008790260913790317 0.006037704825706135 -0.00351767967808364
793 0.000776757933234029 0.0013908010608792139 0.0016443574842267567
800 -0.0036260839822808808 -0.030655684599868293 -0.0023446218807004556
794 0.007118261453540029 4.317878594996466e-05 -0.004534155746959565
526 -0.0009627056810763524 0.013322575483745694 0.017695663146561545
2565 -0.0007544279121869537 -0.009641649419299502 -0.002046001435513764
3852 -0.0208356213670446 -0.03165105762601245 -0.011368320590543676
2339 -0.007623409435936526 0.01857415537628378 -0.01371207057298701
522 -0.0010621463220184713 -0.0009013985540572457 0.007145608540914323
2338 0.027849435833503113 0.0037517779282326387 -0.0026268427609625
528 0.015575279527382777 -0.015377240422749862 0.0024167138638208673
3530 -0.0021035250909369543 0.00605505385270079 -0.00039009178884882384
3845 0.000278972134238422 0.004434434714580174 -0.0017068581147945566
3844 -0.00019862209256577484 -0.0001640200169640244 -0.0018357382982211587
3846 0.003385462234042247 -0.00236895827207818 0.002160533901262902
3851 -0.012796945057477261 0.014850141472891387 0.012404996743886135
2334 -0.0010591055813559513 0.003024345665773816 0.004547054977143984
3531 -0.0035449038188796202 -0.00934786194274697 -0.0032812682958085226
2333 -0.0023905788305394527 0.0034619354744577025 0.007094885501984134
2331 -0.0161766829684046 -0.0045334486258031175 0.0031540303404138147
3842 -0.006095270823727756 0.000661047840745191 0.004689140992249299
3536 -0.008536753432412425 0.010515123663569537 0.015979042584261638
3529 0.0016813592860062522 -0.002628080719481337 0.006802143675935669
3843 -0.003055098552774054 0.00383195835464667 0.003978900078355895
3850 0.012684164922404173 0.006170967930453801 -0.016376447237444594
1408 -0.0007038346569981833 0.0008591899412805391 -0.003111397629277051
2330 -0.0015443454286432068 -0.004573119554783442 -0.0030713637298664517
584 0.0010785887719264818 0.0059666084109383935 -0.029216070836016888
635 0.005599627564396398 -0.011131987379502559 -0.018332746104540464
585 -0.00312145476309452 -0.0016435604952825193 -0.005460961549073422
3705 -0.008411111424034808 -0.024095969902704607 -0.0033989278038409777
2388 -0.00982707445478117 0.0067388503384147895 0.017581137984110214
2034 -0.007742842314792526 -0.0008504348060440424 -0.002507954067148754
2039 0.00030214682571636425 0.009651822835227562 -0.017574306210659127
715 -0.008712296740651793 0.015465295148616994 -0.0015411821186768534
2037 -0.008404574892130375 -0.00922380159378845 -0.021566697354659947
3419 0.002064905919048277 0.019622456978110943 -0.004725143727435044
709 -0.00017822309184902053 0.010530636225973241 0.0051835076407184925
3414 0.005809704172188008 0.0006997207444178101 0.0033533869884799553
2033 0.0013645608432103391 -0.0019926358609038608 0.0035794697758646135
716 -0.004357843072744942 0.0014834899007211669 -0.005680878375756332
3699 0.000700754697029647 -0.0033340902963858205 -0.0029422975984080093
3698 -0.0024922633576295924 0.0009880896727565095 0.00301128739148392
2036 0.002714069698218448 0.002923033761458579 0.011310587495941498
2029 -0.0009272321907712173 0.007750727932896561 -0.005398954745736337
2402 0.0031356821712294324 0.009728184265638113 -0.0008950562223754964
2403 -0.0013235532359880825 -0.0024810302156652846 -0.0034611934757364476
3413 0.002941140616998353 0.007287592247868498 -0.001842706347768178
2030 0.006406076579257378 0.005589691836825119 0.004140343648155895
2405 0.004981824725423811 0.0003890794507758846 -0.004914801453761566
3420 0.02696506796653382 0.039219919875125075 -0.010023978065720513
710 0.002742595299217551 0.002871945528605556 0.0035647167106332344
3701 -0.005294245886975361 0.000543194516120301 -0.001473028237577752
2032 -0.0013809646711547966 0.0010418100053024351 -0.0025113014632776012
2411 -0.004685597887850244 0.022354332214435273 -0.007409527479058882
2410 0.0227348296301999 -0.007899654374972025 0.02566390518562931
2412 0.013652733085864748 -0.004839845359155417 0.00042898519452546274
2409 -0.00044667384822032544 -0.03749003555412746 0.04031574669682919
2406 0.0011275556123753676 -0.008845697656172082 0.004400235094141778
2031 0.007223258690093857 0.003975556875178358 -0.002611558358665931
2035 0.02079997463125944 -0.004596597344967473 0.011611703262567757
2433 0.01403435247417536 -0.006106568521590327 -0.008595565044254237
3868 -0.0018468727533308314 0.004012143498488699 0.0028689963366552557
1084 0.001324965543186748 -0.0045494464029537645 0.001150286951165159
3764 -0.007305181044684906 -0.012588967152406342 -0.003974219612580129
3763 0.01212141260871564 0.0067311963787841465 0.003264704065991619
1083 0.009721986350576148 -0.005578135860160539 0.0009828412270099145
1085 -0.000650974223377446 -0.0005641019952589489 -0.0028534880784307167
3758 -0.0009094303238378395 -0.0018762580951446957 0.0017922547769797562
1086 -0.0007123883041363042 -0.007302975500950662 0.0021536918127557543
3777 -0.0023567618033342097 0.005579807054135653 0.009745736413664762
3765 0.0022115805598676816 -0.004185811376500986 -0.004006995132461275
3871 0.004431730810048986 -0.026541368359016805 0.03100469086912178
3779 -0.0016196458570461106 -0.005238464380252319 -0.03166035530860213
1092 -0.03724633113542282 -0.011580828184670922 0.008166640571240833
3771 -0.00529375376454725 -0.005552359072211564 0.0034681145143551956
3769 0.0017708600020824939 0.005201371796413001 -0.00032678859129692945
3772 -0.0031540721633109086 0.009352785002229918 0.0008118063797977435
3775 0.006239636135878873 -0.0006288008322122556 0.0064843745571397425
1090 0.004574259954564984 -0.002788064677723193 0.020559725831368312
3770 -0.007685292441726749 -0.004294383475162096 -0.0021090632447891416
3757 -0.00258291466221657 -0.012814238140149424 0.00195551890301798
2431 0.0023287990562877387 -0.001327912449927295 -0.002667391418804674
3776 0.00039589290835333234 -0.011349986949871979 -0.014710108706095548
3773 -0.007990719817206208 0.0014991391145970031 0.005836847213471625
3774 -0.0015697711949870365 0.003929526245856315 -0.004854431089243068
3780 -0.005044652512753181 0.004028657469235608 0.006067731435958479
3778 -0.014695850980137308 -0.011942056221566844 0.006567337563253297
1091 -0.00325356123094287 0.013723365865724289 0.022557455845287656
2432 0.0054025388691277985 0.005943642234174696 0.015125873083376103
2425 0.0038383783916947694 0.004203196752543813 0.00216484426469678
3418 -0.005185683610571872 -0.003339618364916527 0.01181360025677731
86 -0.00240584774639905 -0.005342032395720731 -0.0023742175509800147
2216 0.003060153856444376 -0.02863868544949957 0.008102585521071124
618 0.0011386766598557641 0.0009790391799402273 0.007656956200137648
2915 0.005586370454709409 -0.03469777658385104 -0.002732398091047757
3619 -0.0020949729591080127 -0.008203605849329557 0.01739848222267529
2240 -0.01916025022350619 0.012832466822154207 -0.015146030845554461
2916 0.012193630670261486 0.009422625011036209 -0.00963619570568354
2073 -0.009032383082601974 -0.022036114509868768 0.020393953684735042
2218 -0.013138294729099104 0.014614925574988002 -0.0015674604407987895
2910 0.0009541200388811517 -0.004450809218978806 0.007857055051446645
2239 -0.0039691916628685105 -0.0026512123682830525 -0.01692391651209326
3621 0.013502743495509983 -0.0021381262500199325 -0.01762558249069619
3614 0.003964037028950272 -0.000590823123757736 0.002065078042150185
89 -0.0038651379239258324 -0.0027688291167599923 -0.0026964286912783434
2215 0.013974331603218674 -0.009229457516394469 -0.009221926993138192
2234 0.0033461116158588536 0.004380268111184818 0.0037749577609399606
93 -0.006267282468396145 0.004810093194854548 0.004744178759686348
85 -0.00041786873367234483 0.006182014663810064 -0.0035469358432632775
2241 0.021385904077261885 -0.020319409645220624 0.02029814749177914
622 0.02083638768290358 -0.016282428945679203 0.00022532276143903126
624 -0.007413795628290075 -0.009474756702597073 0.0003249012068146264
87 0.009103595899427105 0.006663102763389006 -0.0038237417611989193
91 0.015802758031440288 -0.03130877133973496 -0.012063665378331848
2243 4.6845309707943817e-05 -0.04410181450363011 0.0039006467813212857
2238 0.010540380510920381 -0.0009509460688020897 0.0018639869101826762
2242 -0.032780029441250885 0.01485431888756643 -0.0077558826279433305
2235 0.0015681289883357763 -0.004561820326924212 -0.005648981541196279
2244 -0.016027124037978742 -0.009175195109008336 0.008954810261852169
2237 -0.004680225941031526 -0.0027558650808566306 -0.0009325990236817361
3620 0.02447548945102152 -0.012293986834719682 0.006361410317907982
2233 0.0032807143139190072 0.009021989065016636 -0.0004906932735486152
2236 0.0003748094299052017 0.0011491416274228923 -0.001497779172317274
3613 -0.0030012599599822058 0.001519070208156828 -0.001765484794416834
2217 0.008833149496113586 0.012554719508074 -0.011812993208925286
2212 0.008827122135604793 -0.00044378689156158784 0.002199766721924329
2209 0.0032589967281191658 0.0003847598691155246 0.007398313637369337
2211 -0.004278931557370849 0.0008173581154578667 0.004895705823393619
617 0.002748617626334399 -0.0018637592443671224 -8.625716717097786e-05
616 -0.0023818181592309274 -0.001923625523498781 -0.0022876836014059897
1107 -0.004580833886342716 -0.0045565234940910465 0.00014529273735050706
3896 0.004180145597399778 0.014919902239107032 -0.014472081632637692
1776 -0.011891510174866343 0.018457967342204184 0.013384905857705654
1765 -0.0043607550663308 -0.0022382191787572313 0.00325419260946827
615 -0.003005261121187505 -0.0041630012197725955 0.0011150814252505609
1115 -0.00017312556773987144 -0.004126750684300404 -0.004578552028213967
2399 -0.01216982475826582 -0.02680091831022636 -0.013850619153122195
1774 -0.0035283175298613284 0.013587045364276622 0.003781299796584436
1767 0.0018084255231462824 0.0015675470465144285 0.0032633753291259407
1770 0.0002679603380061968 -0.008418503015069934 0.001507017417279869
1775 -0.0009142238618822977 0.011432340540935905 0.018129501918063257
1766 0.002094620493319879 -0.0021029416316821455 0.0020707074123825506
1768 0.0054520429665576705 -0.0012682004445069169 -0.0020878907529881348
1769 -0.0030087681565559104 -0.0007750990138747807 -0.002625394132935794
1772 -0.019431291772032507 -0.020146383424587817 0.00907163433194697
1109 -0.0022574847438703444 -0.0024170319665187657 -0.007066230738026172
1113 0.04459900541962532 -0.0017764778401536988 -0.02202908951884421
2398 -0.008067383071041594 -0.023575132385650524 -0.005145919034077815
1114 -0.017120130997916462 0.011424048274401875 -0.007071580215743794
623 0.011309615473198972 -0.023326790161753937 0.025208890846892405
1603 -0.03139137865580883 0.0239868390105984 0.003870446475621796
1110 -0.0003118611667710784 0.003855731636245306 0.011796604276788596
1106 -0.005552866785436171 0.002784910431916466 -0.006218665285629144
2394 0.005568753380768601 0.0024113251972384254 -0.00940760899925007
2400 -0.021251080476112325 -0.004293375070148507 0.00565373891515491
626 0.0031295447776174185 -0.005685028633607833 0.003999014972304812
2689 -0.0007279692489739378 0.0005516791097615803 0.008606231153601972
2696 0.01744000937273492 -0.010465905910996925 0.00838622442587599
720 -0.007400605675993195 0.0011951288920743393 -0.0007741675003294852
713 0.01070081332108103 0.0013293046194868493 0.0021275970720473813
714 -0.003300645635754749 -0.0014342492315782096 -0.002110052890721366
718 0.023884276107638117 0.00733975476404103 -0.013968971690565631
946 -0.018551827804310524 0.002677075659704913 -0.00260558414319925
377 -0.0028903981380625963 -0.0035138370564890007 0.002057997598661106
383 -0.02394414379609997 0.0007028279686612525 0.0019772963996415767
2408 0.01235546195840767 -0.010895956005566887 0.009440930315150474
1108 -0.001058088247217374 -0.006661867978184941 0.003202183258423376
717 0.01278440137273229 -0.021736804761700666 0.014544320404638416
628 0.0012996909821761079 -0.003592285810070856 -0.001886246486039949
633 -0.016620555554360945 0.011830751573274975 0.005747132592698207
631 0.002996240443030752 -0.0029422306726978697 -0.019131112636925365
625 0.006365274493318596 -0.005284686759909781 -0.0006613752768490401
942 0.0029933282447956655 0.0064482668987270834 -0.0017864641943083157
1111 0.0017628988718559734 0.01715568224973214 0.012916084821394643
711 0.0027437196354716214 -0.0010469032000145595 -0.0032406454288777175
2396 0.008167939890454482 -0.013354707110710275 -0.0019270371292128081
2391 0.003651925512773828 -0.0031765155493688126 -0.0037048382429199665
1105 0.003780519825656359 0.0006877141727349444 0.0009682597038790919
2401 -0.0071746693167301446 -0.007594171166624423 -0.0037734877605214113
1112 -0.009307156371235399 0.002515107157566205 0.006746903861926201
712 0.004395963455860584 -0.002711998872661233 0.0012935594810096766
2393 0.0008225309387192557 0.0022157839298120032 -0.001224640250452317
2389 0.005908277850363333 0.004656732573882212 -0.006749622647290022
2390 -0.0018173735347239593 0.0017549332879625902 0.0006471664292832554
2397 -0.018027379140849602 -0.010516131808470854 0.02464742372683278
2395 -0.010727501977266032 0.016681251341530333 -0.010142029764759017
2392 -0.0006808866125698572 0.00016736070834256735 0.0005380755121481846
2404 -0.0032917810781817234 -0.006981065998968634 -0.008493754241115432
632 0.009442132225551587 0.0019807150260790197 -0.0059842640814028345
3700 0.0022853832075381054 -0.0011753655607598392 0.0035620437906165865
3703 0.001287262506951497 0.006449193184297855 -0.025017869606279497
1356 -0.0012458388758675109 0.003240700815635934 0.0014588546008854739
2 0.006938393758528643 -0.0030320757609357553 -3.675111841233572e-05
1348 0.00971567535989694 0.00011489655726554822 0.00034887227200345103
1347 -0.003156922012171641 -0.0036636554893531366 -0.0003462714020687961
2017 -0.008369094432521033 -0.002873154808232366 -0.001651662204993901
1354 -0.015784110489516976 0.02808106920100627 0.003815640159338944
1350 -0.0002928893721391417 -0.0001676921365716139 -0.0015298880877581704
1349 -0.005864445038939656 -0.0005355456876009349 0.0022213220990630837
3704 0.014333780613290782 -0.02747036362776679 0.014828995493235787
3697 -0.0009128678077022481 0.0018874443872520397 0.008584147943576266
2018 -0.0027912668461015783 -0.008733164059322137 -0.001162979277087541
3 0.0028617727420331782 0.003019788633429042 -0.000801648186701857
2022 0.00016362101302651094 0.005236717220572069 -0.0008975573810104088
1355 -0.011116199375513516 0.004446790500740045 0.011530499630982636
2021 0.0023951021495427515 -0.003280997510905996 -0.0020061972436593058
2026 0.01301720574335521 0.03709613991912221 -0.0010944267305833164
2028 -0.0028191433197467947 0.004651792151537443 -0.008017247911009584
2040 -0.02825940555145723 -0.01884788605984971 -0.008356485033199771
1346 0.0011685244874686108 6.345074889153487e-05 0.0031130289332529796
2023 -0.009128289932586695 0.007628809284839257 0.012145688416726861
860 0.015614055461370138 0.005430956545222433 0.007742390362764424
10 -0.007414517836578835 -0.0016415693390590584 0.01336747285586685
3176 0.00032484211256596934 0.028750208948091712 -0.02384871588203745
2387 0.015747522673097536 -0.0030919324631100598 -0.0055598599015789256
2382 0.0006925506317818822 -0.008570804944485219 0.0033548914189541093
11 -0.01163480223722059 -0.012107723028660079 0.01638652647186416
5 -0.000698001563365784 0.0013384954872379784 0.0009444785861027399
3528 0.0032056074043616935 0.006633637462828245 0.01685245667034891
3761 -0.009364819456358918 0.008568878888595761 0.009121269349532272
3754 -0.00922419615132659 0.008994412018297246 0.010345711906055538
559 0.01106102197759628 -0.0028525005081424387 0.0197468133739059
3869 -0.003829137843723427 -0.0018136155339732371 -0.006960851356668098
3760 0.00574302822240255 -0.0005700366936893107 0.002135618628994837
3759 -0.0030773219404588233 -2.340814582702175e-06 0.006417637430704336
3867 0.0002305630462367895 -0.0033056044344042723 9.35794695986356e-05
3866 0.0005781123013954178 -0.002500072490580935 0.003236505038315313
2038 0.013154506496850646 0.0013134464769457815 -0.025025015358240053
3768 0.018917306646086773 -0.009228561011235793 -0.01662745936639545
980 -0.01667915631108256 -0.00771988632119815 -0.01366382165057613
973 -0.002680919453108155 -0.00025353196157376265 -0.0027046837247004466
981 0.008749094132215127 -0.02467755107558406 -0.001379812910944134
3762 0.005621842575220879 -0.003988758632243629 0.00025916928896977217
3767 0.012759409523223257 -0.02642360860074253 -0.013619701324498036
4 0.0034448565312520624 0.0032955705252161386 0.0032266969755668415
3523 -0.01848657820943217 0.009673762016692278 -0.013702351560834847
12 -0.017428344547136092 0.01555734847582146 0.02012417095741951
6 -0.0018526888498289584 0.001174879156142946 0.0004239243962766268
3527 -0.029209674568788698 0.0012613413616444425 -0.0015324997091996514
561 0.01707542950023012 0.01670962048437287 0.008789238900607238
3521 0.004573841872760382 -0.000574095914808532 0.00292965130749552
3873 0.015204892573153434 0.02342722036439328 0.016057982153345793
3872 0.015358362287394334 -0.0034287104864860244 -0.0025663883129699925
3520 0.0073614188698616955 0.0008451619722349951 0.004836890654695063
3519 0.0023766126986732483 -0.0036277399158420954 0.0027260433581860143
3766 -0.01709870538824657 0.025390785599300223 -0.010914013901160426
556 -7.632279165636505e-05 0.0009913218436849304 0.0013021311348272939
554 0.0006134024808213465 0.005857001154797307 0.004480314757236068
3518 -0.0038918037086378395 0.0006728301321964054 0.002266679643267999
555 0.005122161805810767 0.0017034079010788167 -0.001937545454011241
3522 0.010720192021487393 0.0003965925772235666 -0.005361018472933755
553 -0.005492340192544242 -0.004834193855493631 -0.005663393520802492
3865 -0.00432977553519164 -0.008197294704157657 -0.004127574849172708
3756 -0.006163516644668951 0.009519556578915515 -0.021360498207039193
3755 -0.005626427070601044 0.008418479319071756 0.011188668602129494
3749 0.0019557681679473497 -0.005444505509080657 -0.007257257070402174
1754 -0.0026829048201796315 -0.0025317182333726277 -5.6550908493447174e-06
1759 -0.020401599547820642 -0.019021335460680168 0.01782369866589716
1753 0.002519576318960324 -0.001269644142574131 -0.002165453521943578
1761 0.003183985621409545 0.016619520306573304 0.00178963798310018
3137 -0.0030362617174298262 0.001961678450292199 0.004316530982775221
3750 0.0006402054501585064 0.002193711628897954 0.008405447630090438
3870 0.00046819099728915637 -0.01256081549016121 0.00034296861634046724
1008 0.00020113769713476612 0.005824889498887547 -0.0028688486524181206
1002 0.004135560408922353 0.005527774837838649 -0.0010244063220131638
3875 -0.00662099762265287 -0.01571635926808744 0.00099710476270252
2068 0.0007861084629323823 -0.009766825791919736 -0.00393928366453599
2067 0.0114190974851392 -0.0001574650525455249 0.0029703583634460478
2072 0.0026624298548938176 0.03373869499648892 -0.03424226958365521
2066 -0.0011599865271576882 0.0015724125271155808 -0.0007808687023932555
1757 -0.002914265984234829 -0.004776268685682343 3.514017700717674e-05
999 0.0040126859588257196 -0.00024923766081691467 0.0020306492699946207
3140 -0.018994495560165626 0.0014308079565506246 -0.014376570528341735
2069 -0.001439148155802197 -0.0008330888610225803 0.00010470189888701678
1339 -0.005655179277686475 -0.04457439921454927 -0.010541125271347405
3136 -0.00082087933302196 -0.0033245699652996847 0.004621830309585764
3135 0.0024324885478112716 -0.002566449462545757 0.0013146059636275165
1333 0.0044583413053024 -0.00837926870066039 0.0010632013607115116
998 0.0019887314290844733 0.0002611084507482014 0.005417158709420617
3134 0.001798091235922774 0.00364259908872092 -0.0006856433660657312
1001 0.005671490850732244 0.0004960851543880354 -9.196713143438968e-05
3141 -0.006566104638474441 -0.029196992043890604 -0.005860728161672267
3133 0.0007793541444659997 0.005843639861713099 0.004825704186007597
3139 0.0181095229337445 0.0065347607903470115 -0.03339828621234012
1340 -0.009972551617558586 0.021543981421066522 0.00032776927647058324
1341 0.012908452800289575 0.01624260894291912 0.013304887645942188
1334 -0.0032767362521005047 -0.003949884456432743 0.01095484789009963
1760 0.009762974999029592 -0.005085978706132671 0.005112189330524187
2071 -0.02225593154459727 -0.011329427299067168 0.0018871841345049448
2065 0.005811662636533495 -0.007502107261968361 0.004343410562384825
1006 -0.013113466256454705 0.0003847934275824105 0.012696403792584084
1336 -0.0025961195666923697 0.0011739996241561222 0.0014688271020826186
1335 0.0100776363300825 0.013643086582369072 0.0013313134870932728
1773 -0.02107790491408446 0.00012022120411605613 -0.024258570004937193
1344 -0.016785189175608957 0.0041528742338549415 0.004305009657076428
1337 -0.00708970625420176 0.0011574868787205639 0.0023533593326973755
2811 0.009924064411861033 0.0063918754525992445 -0.005434719993781771
3019 -0.00786531094648819 0.006334258371479006 -0.02692855531966551
1755 0.0008160232189845021 0.006263673224688458 0.0017549904953972956
3023 0.003513269695452398 -0.0020643579099412094 -0.016158754957403994
1447 0.009505844458052887 -0.005116307190606894 -7.175584809217813e-05
1441 0.0025991037613077527 0.004130586436756425 0.002342166997693918
1771 -0.016244869066879518 -0.001364483972375957 0.017521751751529136
3014 -0.0006453169011656088 -0.00594139462972459 -0.0012437117710956203
2812 0.004518416607802945 0.0032114160194102706 0.0040762807367896794
1343 0.031142565348087427 -0.021165757148122823 -0.016590246308938746
1342 -0.01895924868924239 0.011973494406562615 0.0032463797532506916
1338 -0.0016589206078201349 0.001149173876537459 0.0031514024847202923
1756 0.003921709949117451 0.0005595412863426788 -0.001982444830375302
3953 -0.0010556537455323166 0.004860875728498262 -0.00553812504788554
1452 -0.00569705239956676 0.0005796357280032563 -0.010289153014411549
3960 0.019529101397825478 -0.02536021076498431 0.017598837226428406
3954 -0.00021315895114058775 0.0023248893588170534 0.002066681316205126
1450 0.04062196290307353 -0.01254706745164299 -0.0021473231309413958
1444 0.00821456628275053 -0.0014785812567012799 -0.0016560068958363905
3958 -0.016534088219747705 0.00027744650477509904 -0.007964770525301096
2813 -0.000660040725286185 0.006783594413021026 0.0026906830612700734
1451 -0.010396453569736867 0.0073347918488058704 0.00032249972027247205
2820 -0.0034387509654999196 -0.00531751864943122 -0.0084443525663595
1445 -0.006227967745872965 0.0009032306617840552 0.00045986031839676667
1446 -0.0022261475616022386 0.0020596990854464766 -0.006038460372498059
2814 0.007095662323114802 -0.0011713445180606468 0.0015830259770467524
1442 0.004737644045606452 -0.0026715814485788834 -0.0032455778226061272
2819 -0.00899960345304296 0.020099799028254175 -0.002368563056804253
1443 -0.008840074351285955 -0.004522394961647358 0.008101460817134898
1764 0.01121841445114052 0.005745751288898292 -0.016954132591365544
2810 0.004419095206099642 -0.0061843839705720115 -0.0002007637887116577
2818 -0.0032740416699623015 -0.04292332002249676 -0.015270747505601309
2019 0.006257048963060372 0.00437691415328272 0.00335731658170455
2025 0.018777884963592464 -0.009380415210122662 0.012170167617420725
2020 -0.002260105371115955 0.0033415051738485413 0.0008057273228159614
2697 0.008541911802643375 0.005838580838802713 0.007412383850980006
3593 0.0009756638069599845 -0.004486006978946583 0.000992940997059528
165 -0.01870578203040384 -0.005382498941056026 -0.01203999205551729
384 -0.021143646991520715 -0.011293783110557643 -0.003438627695386631
382 -0.005197485559054089 0.005788645695498775 -0.007196816832831042
649 0.004823960381781651 -0.002201318321970637 -0.00480184839175944
655 0.009416765584326687 -0.007985921509915225 -0.01465286081349846
652 0.0034882171907574537 0.0036375094923174977 0.003720260130048208
656 0.0385368570308324 -0.016649219837166305 0.006288635486006225
651 -0.0028889004149367284 -0.006177141668146715 -0.0007228749770844419
657 0.006020655208015135 0.022365994755014433 -0.022066593628518923
378 -0.0016839652625292882 -0.006006498378740594 0.006057864327419428
163 -0.024195650828293593 0.007533983401050227 -0.007985093404538172
3596 -0.003039773081129014 -0.010340666434519126 -0.009221093187360046
599 0.0026209408225264233 0.01968952266349213 0.018046408455268465
3595 0.005678920683734548 -0.03178695128568977 -0.003658310415997825
1588 0.0012353669448946954 -0.0018394216698908786 -0.0015053054944472216
3589 0.0016129832630384063 -0.0025154181533060763 0.0026225645267644484
650 -0.001082339168423506 0.007400519926777097 0.0012476506524981192
598 -0.004611097185141529 0.009759622151373762 -0.006350755727952161
3592 0.003999228579255853 -0.004266724198299226 0.0028032680657381855
3274 -0.01702837210982426 0.0303106439787316 0.0015885402719126964
659 0.008716212932379338 -0.007340834220647986 -0.019426351133227802
3590 0.0008671663048090592 0.0030991558414233014 -0.003264735073475853
3591 0.005785795602029204 0.0037055152785564504 -0.006479070501087282
158 -0.0016011610504367629 -0.004944392005431583 0.0008900327281765364
3597 0.020228757347787642 -0.03748913311739786 0.002471953080824342
2027 0.010957493903192535 0.02243093937437081 0.043612197398286916
3959 -0.012124456640758065 0.0020176371286671226 -0.019082224136650765
861 0.003676249328686864 0.023832495189573817 0.013696112142795449
3178 0.0010844281752524342 0.023570921451721013 0.024275536891095257
1380 0.016833812431102546 0.013312499656208265 0.012126602101332415
167 -0.02226947024650959 -0.006440247104523525 -0.013759257872856706
3179 0.022041344284616626 -0.008143903604954615 0.0007336316156763197
595 -0.014308982947712134 -0.02817631785133133 0.021364253149541174
853 0.004272504046736754 0.009461207689818464 0.0028538934491199007
2623 0.01969159735065434 -0.0017673058121285608 -0.00551916375131704
1374 0.005262681736915273 -0.0026256183717099533 -0.004121958372718355
1738 -0.010728599008877225 -0.02449714536803823 -0.01635619674371623
3649 -0.0002520394693959984 0.0020765437386623103 -0.006287876546771991
1739 0.00827278071545926 -0.0009109667480728002 -0.002236481550145209
3657 0.017225737623200656 -0.017941114273227917 0.00824264498308833
3172 0.006097331782966506 0.0009785911836703558 -0.0031419127078635336
3650 -0.0004433094817678162 0.0028089827886013546 -0.0016938036359169682
1732 0.006610855485556816 0.0011272348727052383 0.0024315630946351876
3655 -0.02469688183932671 -0.014324787823215265 -0.005589528911472383
3169 -0.004144127349498618 -0.004774706716757305 -0.0034953280485870188
3171 -0.0024778230245401747 0.0015264042002182167 0.002957001541782216
3170 -0.006511487808128584 -0.002172768612423546 0.006785510104481741
3173 -0.00033418233450561996 0.003873270313569474 -0.0036020879779921394
3174 0.0018459555899613081 -0.005150646581545925 -0.0029424037998006403
3177 0.006887242768395224 0.019476457852733865 -0.005883815577153919
3180 0.01768366083032417 0.008940960875382084 0.003835725011009476
1734 -0.0021444492235014306 0.0034376736683234157 0.0011282986480029744
2624 0.008233851049760297 -0.022897778396187816 0.03250906460346839
2617 0.006161983513780848 0.002299776107813305 0.0055379225039388835
2625 -0.013281030946890798 -0.014902166819583541 0.003372899737937092
1740 -0.024108197173078088 0.006446234568954137 -0.022195284518339457
2278 -0.031828189823641224 -0.03404954570861796 0.011469705189716134
3175 0.0016547071615786474 -0.004025681101572831 0.0115594423065257
2280 -0.016045555239201165 0.014058268425411153 -0.00011948860716110993
1731 0.001968624663027416 0.004107632443340601 0.00045082944447383895
1733 0.002757987610758858 0.003091204112511285 -0.0056160080188044715
2146 -0.028008370165931558 -0.01551285708073934 0.03472165728085589
557 -0.0036655705197313425 -3.5782219451269044e-06 -0.011908463177710714
560 -0.01219349615916666 0.027436379358464987 -0.00967393563452994
859 0.0037228446429979772 -0.01897291883105573 -0.0036558032734149187
3454 0.012044761500251083 -0.004806734315338663 0.0006857243956160273
2618 0.0012819638017220253 -0.0014380754015969966 -0.0035007202719655743
2628 0.0030929756129420656 -0.009127906931137433 0.008282411106278817
3158 0.004365010144019861 -0.00488903377643072 0.00014653847713704167
3163 -0.0221359664788057 -0.010054574779368414 -0.015877337335510076
2620 0.0026909731686971107 0.001501336614038745 0.011088973249440201
2627 0.032553273570063664 -0.00022014508922862748 -0.01739270160805459
3944 0.015533828661490794 0.000918257458436403 -0.02613295404173571
3937 -0.00409953064078149 -0.00171759447997549 -0.0014492881750072667
3938 -0.0002265646116052572 -0.002219304366844681 -0.0006137908375393948
3943 -0.008139979121729512 0.006257346669722191 0.024167402312850285
3157 0.0012743138320941867 -0.004554544806132696 -0.007118090756530331
3164 0.008915899346617663 0.0009980541843725484 0.025110302036036147
2622 -0.005969249586733311 0.006515851483181589 0.004202915546745306
2626 -0.031710900509706146 0.01031703064552601 0.00011354795268604143
2621 0.0024676049371437233 -5.1788481685673674e-05 -0.005679922114894786
3526 -0.0033818933036514143 -0.0007041699803616556 -0.005008498790685796
2619 -0.002918440154861671 0.0060742007244277895 -0.0021657721642603252
3448 0.0036701925098443877 0.001490506903602267 -0.00529117675679212
3453 0.00868645619929966 -0.0044800900466742954 -0.01603667250670367
1007 0.014570633569467719 0.026556111599590246 0.0016604500479687036
3912 -0.008226052225868365 0.013964305001786524 0.014650076400597989
3428 -0.01084047946676866 0.018823191073841967 0.008872535431082665
3906 -0.00018020053755013208 0.0007031794759032192 -0.0006491818018317421
3911 0.038402715479541334 0.007004749074099172 -0.027636385830443467
3945 -0.004459328378141714 -0.007042326285073868 0.015723733565534567
3427 0.004857879188740031 0.011021383826735287 -0.01577181917108384
3421 0.0050170375203023605 0.003868779042689283 0.002981863258405032
3443 -0.023100745405691816 0.015685745488480403 0.004191301418095142
3907 -0.0005439759564850555 -0.023967614432844387 0.008923125241064334
3444 -0.028541257823318036 -0.010132496598924304 -0.006411490927777251
3438 -0.008110697452307655 0.0031425091288105134 0.0011955226129852872
3442 -0.011966470661477064 0.005283078650454972 0.004023188604474621
3440 0.02225199954762888 0.02132644635286897 0.016884268528915614
3434 0.0010652015528843928 -0.005899141152690193 -0.0006567575839341095
3902 0.0019455680784533872 0.003699469637124958 -0.00010214154104888936
3904 -0.003377554873071318 0.00023940117541263923 -0.0035190373115148088
3903 -0.008348428261730954 0.001911883642258087 -0.0034668549887616547
3909 -0.009591802864546441 0.020315469555878093 -0.007765737807525651
3901 0.0005154641151175832 0.00012909733973519484 -0.004483375721873026
3908 -0.007477866978821579 -0.018414561672178434 0.017536022393626952
3437 -0.004349426517714027 0.006464276742700267 -0.000770390310768368
3905 -0.00701528154195523 -0.0006008645303384068 0.00200876052509642
3436 -0.0013314672817306321 -0.003326660997981451 -0.003802865104062776
3435 0.001481300051031476 -0.0008189188217962061 -0.0026437983230339418
3910 -0.020604293999638076 0.024024446701912786 0.010798117134663828
3433 -0.0008760887684524273 -0.004717273809164488 -0.0029244966983476076
1479 -0.00216516709504487 -0.009007623196894321 -0.006999288378965628
2770 0.013675475316465466 0.028333767912968443 -0.027204143874487798
127 0.024782752955271287 0.009649714004945242 -0.020942116910848914
1762 -0.0037057175039069534 -0.004647884814566285 -0.025302116056474394
2816 -0.0051567247244356925 -0.035184912355474086 0.0035518617254694245
1484 -0.017195111198947257 0.0022428828452773736 0.00973852821215707
2771 0.020872178970206275 0.002195797527118463 -0.008074216555951107
1477 -0.001439502178516656 -0.010447063246231535 -0.0012057372789534267
129 -0.02814142683467221 0.0268282789828604 -0.013056573067030853
123 -0.0028515568836561794 0.0059616386412723035 0.0009857485367528063
122 -0.0002218529757124179 0.0010302114308798713 0.0025313779364172164
2940 0.019438559472880652 -0.012014104069344058 0.022629903523488103
121 0.0034399716621304316 -0.0015046988235663755 -0.002499888477405151
128 -0.016534648477780873 0.006105979491103052 0.018338855317367526
2933 0.0024503027342403618 -0.004629435696116749 -0.006318914599177498
126 -0.0053316795461351525 0.001351924894099988 0.007874643301844871
2934 -0.0075350876047568915 0.0015579643146763778 0.0015719353882474704
2939 -0.024415594144599918 0.014543775257751487 0.01397480554937008
2938 0.0024042204495006133 0.016832136158451534 -0.016909627211175404
124 0.008937415109795047 -0.011211673860094041 -0.0010945871412428997
125 -0.0019871522028653216 -0.0034081634399603404 0.00281018599413138
2766 0.0014582121085538959 0.0011908279628702872 -0.006615059461723183
2765 -6.641833467594229e-05 0.004454162917355017 0.00276493058419409
132 0.0005978914354492132 -0.01311219980340382 -0.0050270741752291
131 -0.00864145784514549 -0.007618027443608301 -0.004903775888181222
492 -0.005422735014139958 -0.01791381354976894 0.010216729383686325
486 -0.0023075585705901237 0.003364101128303578 0.0021645718501994296
490 -0.005618178021723632 -0.0015872820628536528 -0.019523273432519084
1758 -0.00015668652306935225 0.007298427167843335 -0.00038186083265172863
1763 0.031407188506129155 0.005220342576284115 -0.007549185330888868
2763 0.008248338704666205 0.004570094838292019 0.002907397241892213
130 0.02299146634149282 0.030337632803876767 -0.004660076275348215
491 0.0009498165683900849 0.016279788738699293 -0.00018540761279430402
1485 0.032021545226707374 -0.005875955904328024 -0.012401925622808153
1478 -0.0048343691880394 -0.0026326114797900545 -0.002943268011207149
1483 0.011347242672765722 0.009894330757420855 0.0156457362719553
597 -0.007253189755633002 0.016032188270330004 -0.008043430813232106
3599 0.02222563833318634 -0.020607219768160392 0.006298233573211132
592 0.003644094169774121 -0.011121589886415506 -0.0003964243125969357
3600 0.0008497415573726873 0.015204805973511407 0.0004898844668155369
2761 -0.0014513297718366088 -0.007277925053921027 0.006240869008305313
160 -0.0027561224370638037 0.0008318763924025643 -0.008912950858037979
2767 -0.004465688541099116 0.004354418674075288 0.029714380934836804
166 0.017198444671235193 0.0165078382670134 -0.0006730144659416579
3276 0.005453946879139102 0.009631835382945594 -0.0016126287576124611
1378 0.022029333306463967 -0.0006858442224786143 0.016016702406522965
3598 0.0021033470364218536 0.011147036213611648 -0.002143661057672873
3594 0.004696018573941763 0.005233172273582443 -0.00036026286375123197
487 0.019845014360554285 -0.0030014982583827644 -0.03515835200319504
481 0.0029288400902235954 -0.001901076426701972 -0.006876136321602694
483 -0.008479322163947102 0.002978236194399023 -0.00017440305249141012
489 -0.005827402818151477 -0.0066607179480973455 -0.006864510951835997
593 -0.004054855242149237 -0.0003043141488111506 0.0029391821106270317
482 0.002416949725881068 0.00217953959606441 -0.006005488078834593
591 0.005362142909328837 -0.0024329968739820727 -0.0018639667445514783
162 -0.006231523607009516 -0.00012200088507334514 0.0030140050431623944
488 0.001981288668461473 -0.015940750676806018 -0.01975915173619094
168 0.022938962441318968 -0.015368042564676384 -0.00420939420414444
484 -0.0047244860383983695 0.0005538127046226404 -0.004531806233101489
594 -0.005503967469799935 0.003798905294082193 -0.0056357540200842
1224 0.012696619673354543 -0.001282162274658648 -0.01109150738432201
159 -0.007117354603086799 -0.0016108162773387277 -0.008792580197895094
161 0.0013658431475005986 -0.0013262935622494255 -0.00047399580118083674
1218 -0.0036180293962316677 -0.011110443271851943 -0.00559577230177139
2769 -0.019203934376186425 0.006162588574147587 0.017771571996155547
600 0.012517921040349815 -0.023752367456398398 0.01903715387334341
1223 -0.0010702362015262963 0.01119031810225965 0.011466842148914805
485 -0.0039003741719823262 0.006311527981563926 0.00872259279923398
590 0.004037783455397905 -0.004174095586775998 -0.003602857846621535
3270 -0.0015615302016023364 0.011706469516090584 0.0031223272146470213
2762 -0.00014059078268077016 -0.00022939465949632526 0.0026652362484325424
596 0.01083976013820917 -0.015745374032890894 0.02019134590230115
589 0.0005657614062972332 0.007545347039383931 -0.0004597523652716617
3268 -0.0020899022194863256 -0.0006069618425907521 -0.005974210437172197
3275 -0.02081354562597236 0.0018567775196800655 0.0078432198024289
2489 0.0011868362100074523 -0.0021646023352706397 -0.0020662207488488468
1735 0.015479812973195645 -0.013938636151350336 -0.007726482390023793
1729 -0.0019796150234376295 -0.009516877134353304 -0.0021431292097324065
2496 -0.01017165356042768 -0.016263962717694185 0.004183661909930676
424 -0.00392866663938501 0.0005935950949916856 -0.004244341862601549
2486 0.0006313017070940016 -0.0003909134668524593 0.0005170560239835598
2271 0.0034540683465117596 0.0007679064298492907 0.007747962971806367
2279 -0.014911649713011246 -0.0024006661940430196 0.008629056394312546
2274 0.006825920465737053 -0.005362841418549001 -0.0024612963852037326
1730 -0.0012970629889617058 -0.00026291462103657053 0.004964049303359887
2273 -0.0006088429763159381 0.0038699889701348947 -0.0013572013984196514
431 -0.001389949156360566 0.0022156180140707597 -0.023641553423465946
430 0.006419642028806692 0.005360842908384354 -0.0036167374498404623
426 -0.0003677451117279148 -0.001568625531764337 -0.00036470793448530796
432 -0.011686391084554213 0.007551756996076463 0.016090718624004942
604 0.0022770131626911696 -0.003619296665321464 0.001308375953172073
1373 -0.008353943606046514 -0.006661838063863986 0.005724789702836571
2488 -0.0023878616357696047 0.004935585621140384 -0.003849519582405962
1376 0.00037999715266653103 0.0074445489599532936 0.002343058631491833
605 -0.009170661580420163 -0.004993873572320035 0.008017545222498099
2487 -0.01088032697890435 0.008012865635598372 0.002899644647087694
1371 0.006589907110130481 -0.006355542782351446 -0.0018731793705923144
3931 -0.009573035377178291 -0.02963898574793716 0.005749534784708169
606 0.00013110258810152288 0.004563176332404805 -0.00036835646561085073
3925 -0.00013965270984055868 -0.0001516804782569384 0.0035037118113816065
1370 0.002187069308389458 -0.005625899937556596 -0.002771968030243082
603 -0.0067011641335879705 -0.0038940259956081764 -0.003721084355863416
1372 -0.0017606902019857615 0.0011729800373556632 -0.00045817827145456234
1375 0.026022465273500363 0.004600622843612724 -0.010425987951675925
611 0.016754415748714283 0.01316183261672486 0.020716658286633223
3933 0.008345837264731388 0.0031563619158140412 -0.020660613466168456
1369 0.003591264162594093 -0.0015030580344817994 0.003858340810409684
1377 0.01425099324939063 -0.02653243729085826 -0.01193061666533251
612 -0.026069577019340356 0.012889081284559014 0.009252706535940663
610 0.013533741583906007 -0.01885656367444867 0.041907620993833675
1988 -0.004157599776085124 0.0008850179325598703 -0.010790786041293177
1989 0.007959770745045176 -0.0010542883044911112 -0.00497198230881051
1981 -0.006349246240316173 -0.00034302699949183144 0.002494005068091516
3362 0.00248151773291438 -0.0031744346808390824 -0.0063258921261490665
298 -0.00903576156265352 0.0028332115475103795 -0.018264714877960418
1995 -0.0036160265327659365 0.0010473649311878 0.0009705960999559344
1994 -0.0005277075325317825 -0.0028262033709823813 -0.003185592061008605
1996 0.0038835638566061645 0.0011621610955395638 0.006931874732825819
934 0.030319671583500525 -0.00018550457457531614 -0.012157298356906415
931 -0.015568766024432187 -0.02229509844379134 0.013104463218059071
3568 -0.0006907320551575798 0.007465767789861939 -0.005715881429783928
3567 0.0027336709483709106 -5.84284788901118e-05 -0.0033791189134956476
3928 -0.004168767190655668 -0.003097814724696089 0.00017683309526743784
925 6.467113112770443e-06 0.0014904171330895127 0.002264646521400661
933 -0.016770876346937497 -0.0023704746416348247 -0.017029154722820638
3456 -0.0004085381826348804 0.03523052461867526 0.0010868740168125633
3450 0.0021100741524843806 -0.002032377625658993 -0.004038059482728771
3455 0.002749502510787519 6.484802771927016e-05 -0.00024298593114462156
293 0.002135551032831535 -0.0017887000239445365 0.003774756941194519
2001 -0.0020517696074745214 0.0037145452826496694 0.02612641450226269
3449 -0.0020500410050554286 -0.0010891499159933061 0.0039058609211579795
932 0.026048643944405845 0.011967498710728545 0.01312547481881515
1993 -0.00010924447793117311 -0.005243372239035312 -0.005273695640922387
3452 -0.0010247554778972027 0.0045969161434499025 -0.021915274012793192
2000 0.014708521217773421 -0.007088356646747521 -0.004669924974634813
1999 -0.010779958822129374 -0.021132202583503668 -0.011164898023182048
3447 0.00845126561724245 -0.0033468169438706395 0.0003169982196228944
928 -0.007310374183588572 -0.0009726009944466955 0.0014599618667010916
3451 0.011360843871963964 -0.007803556843214876 0.023331068795181684
3575 -0.009312059979757967 0.01626943211002705 -0.009343891378306777
3574 0.011515284268246136 0.00749065361814578 -0.0022073836656822696
3570 -0.0020155804890806734 0.002450692184367551 0.0053762947108145194
3569 0.00325150998841217 -0.000786355020203978 -0.003727429845002055
3445 -0.002488566189735154 -4.82376480470102e-05 0.004446256535202766
3576 0.017885277430489947 -0.02598769809601005 0.0011593712127885346
3446 -0.00055917409140025 0.006754851925159412 -0.003947611330622461
3368 0.013977793432980992 0.009895331077950372 0.006406257201369831
3361 -0.00022162251232077523 0.003071866645552499 -0.001263087518086661
3367 0.019774301954288902 -0.0063944601305886105 -0.01069183525133016
3369 0.010271885945893988 -0.006585794411607976 -0.0191094349907553
1987 -0.001695980969937938 -0.023526363050056894 0.008567425511798352
1016 -0.0065822756774518406 -0.02279026595256636 0.010134266942572082
1015 -0.03332654628275111 -0.012663970504830981 0.01581915837792986
2003 -0.005058472200052487 0.005114095214281996 0.011908047881423309
1304 -0.01970600914090347 -0.0048089892908011415 -0.014153309415285607
1297 0.0060524187705808365 -2.289820061799181e-05 0.00660671800428555
3425 -0.001934949411539033 -0.0003712468962697058 -0.003931141009499963
1997 0.007808639048663198 0.0016859045455004979 -0.0005608020121134598
1307 -0.0070965166136468995 -0.010957919782559373 -0.005300591728421085
1298 0.0033657937442430207 0.007017199304507064 0.00043686577258388834
1299 -0.002201764538796421 0.0006466693828913177 -0.0036590421400020004
2004 -0.009952877170826435 -0.00677808312688373 0.03340667619389435
300 -0.000337529268686916 -0.01925635790090834 -0.01347740182027262
3430 0.020618881648562126 0.011438991817346434 0.006574482436813614
1308 0.011830401991578355 0.0009037050055068184 -0.006013977664995901
3885 -0.03546465462809098 0.004387197716376541 -0.002734144453544406
3883 0.019119370565609008 -0.00859802705853788 -0.031106628563210944
3884 0.017054450877485344 -0.010846016982675644 -0.018816735951984163
3422 -0.0015020912096858669 5.391670098768466e-05 0.00170967018817109
2002 0.008682710685698682 -0.011704696079156428 -0.024086085486062333
1301 -0.0023781936228004868 0.009622990450806801 0.00045941883375402693
1998 -0.0011208921531109914 -0.0008808591670500255 -0.001127400695414269
3423 -0.004420248138220821 -0.005906138895870966 0.0026412465935156232
1302 0.010827163879450699 -0.02323237164238248 0.003585044622165936
1300 -0.0022835343151420937 -0.004004807976296438 -0.0035884989235657953
294 0.003209122506759739 0.0019924911611595366 -0.0007327830050221323
3426 -0.004436531749693158 0.0035956070681933835 -0.004650398598907913
3424 -0.0015704354853426996 0.010139440749176092 -0.0060797141035357945
1009 0.004023052430054255 -0.0013552011822253738 -0.0087690262709256
1481 0.004226225951073924 -0.002582127434126188 -0.0026444752677498304
3439 0.0021747888609606387 0.020231801439456302 -0.023273600439169304
3441 0.029310161206563465 -0.011134226440255723 -0.02610775666957125
3429 -0.011361742447608049 -0.018466627141249272 0.0015610358754390825
299 -0.004670120892846729 0.016173239736856873 -0.00029097089276221245
1305 -0.0071349888873507225 -0.01182170758529896 -0.036455866121574955
1541 0.0009878847080675682 -0.0014969380475025895 -0.0030920022172199325
1539 -0.0006941646961590014 0.007652788158033622 -0.0009126761706196255
3315 -0.0010567071142834224 0.005258707290131121 0.002509251603593284
3431 0.023226459766347334 0.008399696940929888 0.0031199672226672904
1543 -0.01692179710343054 -0.007010803933083983 -0.020858472100606245
1893 0.01165081399169818 0.005999079978059269 -0.008961218581583276
508 -0.001512377377583781 0.006480266083965403 0.005053723184430486
1537 -0.008920434112539106 -0.002515514600787898 0.002619166248137049
1538 -0.00214740593302227 -0.0050486676433805985 0.0010165751383521403
1540 -0.002068173959038427 0.0025465892080195076 -0.003569702040323833
1022 -0.0039455350687887854 -0.008493868282994404 -0.001377053634785223
1029 -0.016774269242515728 -0.013676396078279605 -0.005851628663532506
2808 -0.013612648074407993 -0.004551173221739182 0.021385082792947263
2807 -0.01616505073867936 0.022848943934293146 0.002473086250226475
2764 -0.001956371440186212 -0.002961606351808554 0.0026820507361291286
2806 0.02218952587699544 0.0008053870631895033 0.010733517816179011
3432 -0.0008004187849683314 0.01050703163307235 0.02195483685751294
2802 -0.0014157088069206125 0.007853795980745051 -0.0022098367330653066
3323 -0.011607994064488546 0.02272552188998932 -0.015834430466481968
2799 0.005374602414628273 -0.001461686941922024 -0.00037469735953038
2804 -0.011237220068696829 -0.02305835547828007 -0.019444764844320315
2801 0.0019903249342626463 0.001796343775265677 0.01074377090218728
2798 -0.008296102311122978 0.0020406093407189323 0.004323705143888834
341 0.007420531466591696 -0.004512747769938576 0.0026616270531054594
2800 0.002818683768014984 -0.000291119453781722 -9.737250944329484e-05
2772 -0.020670829258496358 0.005691771587365335 0.018061420893271736
1303 -0.008760447156732258 -0.0028436565050531043 0.006271460983249125
3314 -0.0008261040549630041 0.002715137698446795 -0.0017600457021520407
3320 -0.012146723829378384 0.03278587771934412 -0.023043006813488986
3313 0.0004968881298678119 0.002369757033471791 -0.004233238572950611
1222 0.02719594877797107 -0.021274257939407584 0.00018385614321804282
2609 -0.0016418973632528896 -0.0010625140936012353 0.003610197235830866
2616 0.01377072197819575 0.00017460887059001285 -0.0027991699078878302
346 -0.015707786492793037 0.005967306119391208 -0.0105289667924623
347 -0.015539161844958098 -0.018355386766768966 0.0041042163164697444
1031 -0.030175978915986133 0.004292160828454502 -0.00039965614013234716
1219 0.002597823359395199 -0.00297298139806264 0.02759115499006544
1032 -0.01865681647339445 0.005532708106738186 0.015056577206017998
342 0.003077144106742233 0.0011589275231998382 0.00033117604020604246
1026 -0.002234888263084677 -2.883747012372055e-05 -0.0035780912903905873
1025 -0.0011672992613693952 -0.0036765530086601663 -0.0052249110219032635
1785 -0.0001328591953016859 -0.005046072091516255 -0.016291733937710128
348 -0.03943883608055525 0.003377277725130032 -0.027240840088748924
2803 -0.015297689499196042 0.00783164914649133 0.002743097373905442
1221 0.012001661966276797 -0.0033654403888779922 -0.010652405430266831
2610 0.005391687384948942 -0.00030050523617126626 -0.0017798795869637463
1220 8.253533067092653e-05 0.014319649898525041 -0.006718614872850478
2614 0.02621465975046394 0.01348791727930691 0.006572043240864154
2805 -0.013646903551123482 0.01215492111864076 0.018223895336262674
2615 -0.0036116402221597795 0.015874700063740477 -0.0076256640890861845
1217 -0.0021946732699575358 0.0009028807808073764 -0.002929241448822115
1216 -0.0008785044701497801 -0.0026431982886298737 0.0023531314181050537
1215 0.004575969814982205 0.0019499924124125258 -0.0006575036142139214
1213 -0.0005118322455508543 0.005411142246716171 -0.0031108475828560862
2797 1.0609397999879635e-05 -0.003388838939150907 -0.0021271639127808314
1214 -0.0003431987880013195 0.003567418784491456 0.003751161714180078
940 0.006163056857322674 -0.0035211650212861045 0.000749415256747556
3104 -0.007845296975910255 0.005343273859299049 -0.030838445266787782
2492 -0.023975679072581732 -0.012946844718259227 -0.01267894698039443
2485 -0.006875521735555192 0.001515915774138158 -0.0009735352768358676
2493 0.0035527983503968004 -0.010194235465186887 -0.019919888512174074
2491 0.0030505920175529365 -0.019332437332845096 0.012374223156078678
3411 -0.0049627965843301695 0.003007133762602795 -0.009212397800597683
3412 7.423170433134572e-05 0.001086242854694774 0.0019317421994599722
3410 -0.0070321907739094875 0.005142682840671016 -0.006720545778651262
3103 -0.0036067387696174778 -0.0027179656509438263 -0.008548623883348988
3105 -0.0025181923539231194 0.003448700056832633 0.017777603211430435
1150 0.001277989962169554 0.015215918463497109 -0.0210353220513435
3415 0.011054501762328958 0.0078905522922789 -0.010476214244941495
3099 0.006831212948716748 -0.0016573868470052238 0.0007565214503927379
609 0.0015624885165733766 0.0221570591604743 0.00022821464408419358
3409 -0.0013284697389724354 -0.005232924124027202 -0.0042375460108071625
601 0.0032442271543839233 0.0008159274362469248 -0.0020976937789225895
2558 -0.0002643743004210956 -0.0015423445795482414 0.005603117878609663
602 -0.00033528735333920054 0.00026325432499725647 0.0024177182445086483
607 -0.00196860149404028 0.0029584081566376118 3.872274179999929e-05
3416 0.020324272910095375 -0.0021299212460774617 -0.005028745323926813
2560 -0.0033060887189665087 -0.004137697635689151 -0.004628724639588613
2559 0.0029307519372951695 -0.002096757864466113 -0.004167781306470217
3417 -0.011358219635371654 -0.013106283146711865 -0.0014392334171954072
3932 0.04345095206086691 0.003843231276790317 -0.022611629939572647
3097 0.0005336524995651571 -0.0009503470957441417 0.008998071295824417
608 0.011836693198551785 -0.01261045249443221 -0.023150568892575753
2566 0.023222130378130024 -0.007172074687924852 0.012253121094266543
2567 0.015402410324791315 0.013091576516689497 0.009930763806136104
2562 -1.4742405496166368e-05 -0.0015751367014326606 -0.006326180526650308
2561 0.0015284578018240308 -0.00483159495459604 0.003844126882735472
3101 0.004420630297685536 0.007467328126408092 -0.0013989261154149378
3098 0.0012090772775840827 -0.007182879347341971 0.007953963718416213
1127 -0.00953454601749156 -0.009260412083050298 -0.015371267216894595
1128 0.010278083587242217 -0.008548668664809965 -0.005990255075548344
1809 0.011873306701261127 -0.0010644771387453415 0.001164302754594908
1804 -0.002262428100847665 -0.0028248968471273647 -0.0005737519527994324
1807 0.00810568008287699 -0.016228116835314624 -0.000858703760829358
1802 -0.004647467335955014 0.0015640475538566674 0.0023386446209872
1803 0.0012427558273132781 0.0007881594092176075 0.0099197663358407
297 -0.003806088246728857 -0.01803333021672334 0.032789224690990666
3106 0.006931785710951828 -0.016731592933789913 0.01699723400461734
3102 -0.0008399761047373515 -0.0011630151221858835 0.0008084165658819197
3108 -0.0008165288913195345 0.022012784147026777 -0.02255627312592527
3107 -0.042965488171823454 0.022125423107124727 -0.007836491602545185
1806 0.006371989276422542 -0.0023695096770529876 0.0011367824678937034
929 0.0010643060937717366 0.0041850914669174216 -0.008482418446448987
292 -2.9212546778824106e-05 0.004488082362506511 -0.0024219776441368013
2268 -0.010907484668562381 -0.009547975192027939 0.00032499851076357944
368 0.00821082133595335 0.007587648958924081 -0.0036636402662163724
3100 0.0045922677528974516 0.00047767651744690717 0.0009055227187911208
296 -0.019607835874726677 -0.029292120675174484 0.017159528318675128
289 -0.0029041929491425604 0.002730296301193706 0.007449123149498744
295 0.033059750897637 0.017560482477702026 0.004933016562765119
936 -0.004716032982613505 0.0188630068936895 -0.0063724791542898555
1805 -0.0048308151911188495 -0.0037169855712000212 -0.005752659744095327
291 -0.0073986783486400505 -0.00343684527257997 0.0009838656339888046
1801 0.0066915519829840895 -0.0005190412583054074 -0.007749455493332434
1808 0.008448688497209766 -0.034396321925330604 0.010952575330948872
290 -0.001203455654897409 0.0032547351371794977 -0.004226627371494051
930 0.00012063028370400445 -0.0031663320869200844 0.004318596674254105
927 -0.004706156439986266 -0.00014080893301543656 0.01095172236778525
926 0.0006042948603630269 0.003208778056696646 -0.004624100051024495
935 -0.002491846234867756 0.0122346189454084 0.00926372226271641
363 0.007710797077252242 0.00027671773412824105 -0.0037042386678340605
3464 -0.00517109353170871 -0.0060874380397661805 0.04255760350639789
827 -0.012425682461751112 0.02432129155002356 -0.009451019243196556
822 -0.0016532852435270152 0.0065974699635454135 -0.0017359259806307148
821 0.0019858407141191536 -0.004200889277667201 -0.0002474861683010431
826 0.0035636869656806873 -0.005208305250565721 0.013687977791493274
1812 0.024386119376215938 0.0037588672232884627 -0.023206251722617727
819 0.00272764796440858 0.0017762768517630351 -0.005840593056788805
2262 -0.007000269456126276 0.0025533588881506675 0.0021034266420317956
828 0.008510323375006044 -0.03436683888793681 -0.005499257204157996
364 -0.0033521496474452402 -0.001123917088982368 0.0011958438475857657
2266 -0.004100835528192026 -0.021585009239943765 -0.0053336626378736466
362 0.0005209187180198492 0.0010640460409225827 0.0005935019829266815
1306 -0.0018474818024843966 -0.01811541326430103 -9.973982112388216e-05
191 -0.00763411499298996 0.024321993415780563 -0.005902873042595704
2579 -0.017312781543267132 -0.037020924873673866 -0.014950440481657671
369 -0.021192969544658453 0.01130150725502491 -0.01029524687622118
3622 0.009467891910018724 -0.014377156158984257 0.012618733692478377
3618 0.0034239076637354476 -0.0024070614022516446 0.0007742073216075612
367 -0.022689336339626418 -0.011351497142825955 0.005992684056458474
3624 -0.011473401483748882 0.002864096972793855 0.002808103318865146
361 0.01185171891199826 0.001522772137244455 -0.0050027217398496545
3617 -0.0045631939949416995 -0.0047717850288467745 -0.005387862658955169
818 0.0010294114341179402 -0.0011707528298607083 0.003673731175324717
820 -0.000542063218479652 0.005069634890113526 0.007256954346214221
96 0.01701229211644167 -0.016985073952852415 0.008286576191078929
3623 0.004365352875997629 0.00828451607128073 -0.003371840388763647
3616 0.001182978659416527 0.0012702585878946965 2.7123900444245358e-05
3615 -0.0017240588390697125 0.0013320631370876814 -0.004526088020981426
1546 0.0015725691861034619 -0.013027203674664898 0.002453331389338125
1542 -0.0011818513426285662 0.005782629742020845 -0.0016349420957781685
1547 0.023107097978727138 -0.01733561324420777 -0.004273275202493412
3889 0.0036164863321112134 -0.010706313298438186 -0.0012589153129386505
817 0.007922898978243931 0.005693801588648059 -0.0029583649622242024
3895 0.005588589208896933 0.01177419095285478 0.010208223217176099
1544 0.017159783115207113 -0.033647431310196485 0.030100480468687102
3900 0.007585581915432731 0.024676531683816543 -0.0007058998679512388
824 -0.0004622587836528543 0.02193572265074936 -0.010559624680194165
94 0.002905379650624304 -0.017657920429191346 0.006046468375425678
339 -0.006501470724155803 -0.0007428793558201418 -0.00570295096316685
345 0.012799201643766089 -0.0054735142659877055 -0.009386907772223316
3316 -9.89118562047843e-06 -0.003933890613634879 0.0019184931742555538
757 0.0032075248261935166 0.0018679405622779137 -0.0022848411583012086
763 0.004294605383447647 -0.025203531451531636 0.025223479707849886
95 -0.015616317297277195 -0.017578286728300193 -0.007529350018404638
764 -0.011497253014697069 0.003859472702076031 -0.0008435210233423925
90 0.010834394553800062 -0.004256816921445272 0.01292082234244745
1545 0.002641625637042416 0.005817056688460164 0.008486125072877321
3894 -0.00225348333836401 0.00043354596390857744 -0.0017973784870752166
3899 0.012734819033176109 0.020522496996798426 -0.018147551180090007
825 0.005102079478235249 -0.00868001092775047 0.019380803336574083
338 -0.004634076206011854 0.0003227319559040143 0.0020721204406407784
344 -0.002351171943938871 -0.013206492545170105 0.02968476715874989
340 -0.0039019528489335183 0.008117942863174191 -0.010845715733646484
3892 -0.0009866995121948076 -0.002187845153594126 0.004626590911045747
823 -0.009800160906627515 -0.0038041192895324353 -0.009869221373003995
3890 0.0023791417516459234 -0.001558213560209769 -0.0059886252075380016
765 0.01937654801886312 -0.010851290310606344 0.0030259891590325894
3891 -0.007333772907448413 -4.874842901763173e-05 -0.016101036855647483
337 -0.003634304654823267 -0.0047747186368866865 0.0020419516066063972
3893 -0.0029713762960610277 -0.00490461266269558 0.002902431128722325
3898 0.011271747459437178 0.015338892958761067 -0.02165459811579287
3897 0.012261747208778907 0.0057577024989018686 -0.004401276326104914
343 -0.0064108774585990135 -0.015738321324351226 -0.019511717374910118
393 0.0003410470527631975 0.0024919590949506365 -0.040554859591593696
392 -0.025897025074487788 -0.033382202139187404 0.003054005041821984
2605 -0.010298480043963415 0.0012363488718183666 0.00032184311729158203
385 0.00223130302514486 -0.00714230961193306 -0.004736270930587772
2613 0.0027147315614002715 -0.007324023807421099 -0.005971738483204059
391 -0.002532579807418424 0.015779231624893985 -0.010734756736259276
760 -0.0035263325729909065 -0.0051454945521044165 0.005180634395787927
758 0.00041502168410590296 -0.004500095566206295 -0.0010054288347615557
1175 0.012181824646660722 -0.0013023612429672827 -0.010051477698768454
3321 0.0034662822633045698 0.020465827261233374 -0.009281168062477474
3319 0.006394715183260281 0.012615880725014733 -0.011085303719561205
759 -0.001962701694194819 -0.0001968914809082911 0.003229914376745645
766 0.019537130841048 -0.009006474230726947 0.003979527374729068
2606 0.006449538499332765 0.0010346683921247841 -4.5653822208306035e-05
761 -0.0008125268648773192 0.002060768511469381 0.0051150823562561175
386 0.003992052921530713 -0.0008891792772060924 -0.00037051848981158665
2608 0.002067312521651668 -0.00280174619229809 -0.004179102203230459
767 -0.02487370613018572 0.018435057094699656 0.016339554042111924
2607 -0.003983958011000407 -0.0019215128246117767 0.0009111400290470706
2611 -0.017373116382513 -0.013857189438055506 -0.019562418600505855
762 0.005122886286349354 -0.0010801564094610149 -0.006293824922088962
2340 0.018527701395893117 0.004459312193982214 -0.009370774192093194
768 0.004486020875017157 0.0065077019026694456 0.0005561224162516635
947 -0.008357011525784783 -0.008250035232355438 0.030979368794671593
2612 -0.033616983075395804 0.004735885994396186 -0.005996635443612554
2568 0.0304283581461699 -0.008796063691606812 -0.012894934509097818
944 -0.02579050595095577 -0.0017347056300905806 -0.007842125526054585
939 -0.0012720263371391754 0.0018707445345845992 0.007358787914934237
776 0.0069087628543587935 0.008877608429649542 -0.008777345800207881
780 -0.019798465487482448 0.013303689570582316 -0.035095350621384074
3708 -0.0004774173064538076 -0.021686672065517984 -0.03394890587612684
773 -0.002549586935247968 -0.0037984693782709095 -0.0036507988085399566
3201 0.026692231002685012 0.007334829940011847 0.008075159390019744
3503 -0.00019004109100525585 -0.014622634826447423 0.001079850253951105
779 -0.03725155769730335 -0.007360055848163478 0.004024797201321063
777 0.0002462150047328679 0.010784291305297214 -0.004882181319842885
815 0.0004270510270679904 0.004770137460965299 0.010785444506987488
774 -0.007280643136343765 -0.005616525686135173 0.00618880713656244
307 -0.017928928262239074 -0.01873946920982543 -0.021822470252084784
810 -0.005469921784920169 0.001822944602050149 0.0006742664444124066
308 0.003063044086928156 0.006869538412741068 0.00041282891927690743
1584 -0.005685080241759035 0.007202066643733953 0.006356945419676021
775 -0.004525970181794573 -0.021661579907678665 -0.0036413461086622126
3702 0.005355438251555773 -0.00289267266092095 -0.003908621363417787
816 0.011689580910557922 0.011266208696092664 0.009563743912283212
938 0.0017056786916506794 -0.004458503053662047 -0.0022872791381053814
3706 0.00100903542010266 0.01616991962035516 -0.004942366591574988
770 0.007012549195104171 -0.0004466922576645095 -0.00504852037671371
469 0.005048349147714485 -0.003406674682842891 0.002602857615883035
772 0.005273492011842504 0.0014385473356637382 0.003713697532542397
470 0.0007378348039123917 -0.0034673494538643625 0.004261756532353585
477 0.026623269076790544 -0.01334791851964706 -0.004686811742670615
476 -0.003599459428231513 0.0010039981274459707 0.016054509016613722
769 -0.0022043192159163427 -0.007430218570497725 -0.003359011614459008
808 0.003322051243824322 -0.0029995974054351296 0.002377415187995245
771 0.0019306632734889283 -0.0004398939166725192 -0.002461397646992665
67 0.010651410263715477 -0.026433389216162447 0.013017272541738666
271 -0.005388943191187096 -0.020630231601059666 0.002128521969501647
265 -0.0055925260560272805 -0.007246441814460802 0.0019014652736034493
1583 -0.019801525858358492 -0.009690866571990565 0.005169642244383276
272 -0.006313443642946361 -0.011032115542769479 -0.008518399864199246
1576 -0.003806224395856172 -0.006770921707545954 0.0011648277151123123
68 -0.0027856081240183665 0.022681356777971118 -0.021623380556001548
266 -0.0009079941424088016 0.00787610385276706 0.0012289957375349716
273 -0.013439972193399237 -0.004440372355670234 -0.01977668164536854
1681 -0.004057086893434671 0.013210447609798285 0.004119708418011156
1682 0.0026966146557629352 0.0067648213513234285 -0.001891924151769913
1687 -0.023407289639566814 0.007792408778401684 0.02048725176821539
1689 0.00678161051613638 -0.010725995313120245 -0.026587784537430683
1683 -0.003546806936199233 -0.010610856054242054 0.0004376008183596617
814 0.012522196715467743 0.009780744558603935 -0.003240900084867952
62 -0.003010184479932959 -0.006315349893291336 -0.0024755094924359252
1750 0.0029599139188785364 0.013702708335030822 -0.007559803063861321
1744 -0.002198225589443762 0.003115389496663539 -0.0024411599804315806
1752 0.0020463117486132793 0.013451982229670593 0.0005928315509206222
1751 0.019929260903908633 -0.024131100914023883 -0.01084294880623857
1743 -0.004957841789660811 -0.009180169192820092 0.004991636152275974
1684 -0.0003149744337262861 -0.0036462967656749235 0.0038749949403923804
1578 -0.0025241314087246416 0.00448431776298438 5.553030666764327e-05
475 -0.02577503800355931 -0.024129803456766578 0.01781504241642438
268 0.0003976757877597422 0.0023349216947539564 -0.0037731889309987783
1582 0.0004912697645434736 -0.0003636510297365301 0.012552707489277098
1742 0.0007314113273504874 0.0007909867449337171 0.0039963185935794655
1577 -0.0026508943579699276 0.002019809487228401 0.0005858468891864939
61 -0.0030799762322439987 0.0026648777639414994 0.004952713790215103
69 -0.014027913608431213 0.0026146507468391427 -0.015620326062086591
1746 0.0026006326236611343 -0.00565107164456667 -0.0022239505169228103
1745 0.008892883504940571 -0.010848492625287835 -0.008684215314704079
3310 -0.006084881381502971 0.02473662071028942 -0.01391416938596483
707 -0.011873315327188627 -0.014204156972928173 -0.0021122443235725742
1040 0.008823571464647717 0.009030700945448583 0.004237818149105593
3311 -0.0009262276583136157 -0.022062141192848276 0.002130822709857266
3306 0.007031799294080693 0.0017205727003275135 0.0078049958588543265
2882 -0.0023098222617114078 -0.0028578023059418166 -0.0017239149843014255
1041 0.0006999391593389079 0.020762189021318208 0.004427583706933446
3305 0.008385787862610133 0.0015286542974485768 -0.0010189816821309491
2905 0.0021144813595187213 0.004851485374036373 -0.00952475071412069
1033 -0.0030749676822775128 -0.006945907741117558 0.008384586507587976
3304 0.001757109140537487 -0.0022173513566319182 -0.001227369733551481
2913 -0.019755093339362765 -0.014800301864476745 0.03493495634183035
704 0.0006052840383265227 0.010587458929669221 0.015716662335124348
3303 0.003043132812630135 0.002234821162072785 -0.006484516392507251
3312 -0.03946020559427435 0.007019804894045428 -0.00511333664531636
2889 -0.007219438121518882 -0.00195679965200864 -0.008316624797656463
2908 0.003749563184449387 0.0008675153761931138 0.0020965667210007064
2912 -0.020810554832625013 0.017504957604107696 -0.0274876660736354
708 0.0007127802846595529 0.0022019813305753696 -0.020330900040404103
2881 -0.0031689793863027304 0.00017048566888777018 -0.0038497341119922354
2914 0.017959475134333987 0.003069254346869427 0.011167621049453682
1039 -0.0008962430546716001 -0.0005187261859493626 0.028558780555883036
2906 0.0014822906073446585 0.0005240647427800176 0.009343695170368205
701 -0.0017557523446132463 -0.0015543199102549172 0.007202685168174308
2907 0.0024356509443596392 0.006889252651815513 -0.005087811013233415
2911 0.006584864617761789 -0.021798773817958708 0.0066862485208227
2887 -0.01521967450926698 -0.015677643534597642 0.030035408019323535
699 -0.00043260168010495343 0.006029127327892678 0.0001048894396444981
702 0.0017545312932185605 -0.003394161020184491 0.0022701564005138467
700 0.0012888838656045301 -0.008020872557442738 -0.0018165532370427132
706 -0.008771954002529567 -0.01661118640347071 -0.01850883090037079
2909 0.007705064965396151 -0.002922390422609623 -0.0069392499952347225
1902 -0.004201978270801868 -0.004020273765234751 0.000945508953550016
1908 -0.0014963467133537664 -0.005709726288021534 0.0007440071080391064
1900 0.007896230683252499 -0.004169046149228752 -0.0010682173835952237
682 0.0033983797702286118 0.04002274645547493 -0.003652506381002828
885 -0.010545288659262186 0.008220783643813444 -0.007600248305574094
1901 -0.0003050769358093013 4.411733774620748e-06 0.001521790437027188
683 -0.004367493493756275 -0.0054003045085241645 0.02439983372515764
1880 -0.0122237457204083 -0.0021888247080383747 0.004193521916014086
1608 -0.011902034408279843 -0.009570232881504222 -0.027726875175068867
1598 -0.0023964300492789544 -0.005627972324160101 0.00036627835260627897
878 0.011140236227923234 0.0029517155715169173 -0.0037447366191115626
620 0.00631053196600402 0.005376359359044667 0.003115003110110963
1604 -0.007318302106672537 0.0014634760265858997 0.003519388394304529
1597 -0.004533424363697851 0.001710660400719224 -0.0007741541962284046
1906 0.008024843761500075 0.010431257323646002 0.006811618582675587
1599 0.0006065117766062706 -0.003072120460546732 -0.003916814422129178
3820 0.006091434873155006 0.0026572642768146614 0.0017929054782172878
1600 0.001744327580112119 0.0026456011601466507 -0.00806673330403138
2888 -0.025985358145131802 0.0027270632305257175 0.020982688453583483
1605 0.023045341180802585 0.007264570086688116 0.01425566827041137
1601 -0.008227738126500633 0.004605448460619514 -0.006247841165572341
1602 0.0009219281197143232 0.0026849981051054656 0.0012791877154950755
888 -0.008395294834870459 -0.007184778456560904 0.03173257459906644
881 0.006286004433121311 0.003093913390675865 -0.004247065036790019
880 0.0043605872133055884 -0.0030541324391568977 0.004770254558804811
1907 0.009032147295455257 -0.02249192693518534 -0.031664185179265676
3823 0.006001083554291287 -0.007161119538651619 0.020098483753157072
1607 0.017236924502137194 0.00044758714546330334 0.003886128302815873
1606 -0.02398401498428735 0.019416557801333702 -0.0028298262695418725
884 0.01289820673094357 -0.010797518759172682 -0.0009880340782732532
882 -0.005922108050062395 -0.002378692465357441 -0.0006993439876983766
886 0.006050018880362887 -0.00637284719127548 0.020106533701268563
877 0.006754849571239965 0.0034220754592430066 0.007435972935556568
887 0.005244187075859882 0.00854642008405816 -0.015350221227912013
879 0.00016520421669925128 0.005127478080657853 -0.0026104329049853555
3819 0.001227710839656612 0.0026844595668761816 -0.0015463701516058828
1169 -0.0030202250520913504 0.000384769809772712 0.0019893916691766126
1881 -0.0028539613969912614 -0.003210781592161674 0.007513467908101419
302 -0.005736571922980194 -0.0029946197561516222 0.002434798893520194
303 -0.00036459487711105944 -0.004347953703463825 -0.002721505303841898
376 0.0018643081914021837 0.0025106780323667474 -0.0016586351386405724
305 0.004966407609162404 0.003002550938613813 -0.0017475587665949125
312 0.00317680405213881 0.0005187555620369773 0.0028194649627549377
1171 0.025419159740180358 -0.015295665297981953 -0.0034642813012844297
1172 -0.022177468326590576 -0.0022783449979970195 -0.008571452034101281
375 0.0008980917485149648 -0.00693007214914613 -0.008192014545445459
3822 0.0014884858243744202 0.0021144189883325034 -0.008151319897532169
2844 -0.0054266841413158715 -0.010650001659387965 1.3006793865910708e-05
1165 -0.0012690685483828974 -0.002164748186006422 0.0016971881896402123
1166 0.004672348884457513 0.005130586927191798 0.005240107494150755
1873 -0.0013598019720870013 0.0032087987654874648 -0.00024635791964749086
1173 0.00658810615570412 -0.007686067525036727 0.01860152517672552
3827 0.02154505218763754 -0.015532325669946515 -0.006045635755816616
309 -0.0029357265222013057 -0.011282160973085641 0.022340387820268995
1167 0.0024900894793583915 0.011793477014662563 -0.0008081125580101488
3826 -0.01691895981634256 -0.008424402348349576 0.013681602100660465
306 0.002795769268727084 0.006795041171943706 -0.002992335265697628
310 0.0006122757150951238 -0.01916686602576529 -0.011332947136667486
2842 0.03969107030042861 0.010572432708102776 0.010458405026868598
941 6.240503877740127e-06 -0.00375213045037809 -0.00612038164798338
379 0.018319910854009296 -0.02081930347111075 -0.020519891050605206
304 -0.0037828682544128883 -0.00015878090828566494 -0.0062905338705463425
301 -0.006048232655808282 0.014078136360920384 0.001372525910763381
3821 -0.0035898055373257275 0.007637508517842212 0.00017367709439631808
380 0.005701416476361927 -0.022610457641038435 -0.008190380211359512
373 -0.003145270389872635 0.0019826034147900065 -0.0030896224801483917
948 0.0036628376248537885 -0.0037028952809510882 -0.002026071220282886
381 0.0006780167858465337 0.00666874144352549 0.026876120209116682
374 0.005466293147810702 0.0021517938559786533 -0.001530317653990215
2024 -0.01482628272183642 -0.01109064906928066 0.021361315825524838
1430 -0.006265485334922485 -0.0001330006832728482 0.008265229785833642
3199 0.023151266229864586 -0.013196842159451393 -0.0015105581936246148
3193 0.0002593804564969099 0.0006001604210008301 0.002573913271940734
778 -0.005667215539643151 -0.006283906685240229 -0.013506073673521303
3200 -0.0006637956276388027 0.009149135341816005 0.002851384465380347
3036 0.0018918214962604742 0.0105274754643065 0.012194716925715448
3034 -0.004605515093722538 -0.009083377824593567 -0.00048026221091242974
3026 -0.0018385934490420864 -0.005842867297097238 -0.0035292929143271334
807 -0.0026579726572956647 0.005279740444081998 0.0012794655322847725
3027 0.004563678430212894 0.00343488844777322 0.004735257022347765
3194 -0.00019350166483589714 -0.000646311294609055 0.002708058931615132
812 -0.01575619242221618 0.025945686392549645 0.019131204508823066
1432 -0.0010780835879500286 -0.004452833563251509 -0.005616375283429285
3028 0.003983349541580763 0.0032157898643402055 -0.0009955343930657962
3033 0.005528070941110347 -0.0015179814039850998 -0.008717913362700122
3029 0.005352769326164108 0.0011721898184156945 0.0004014990800773522
806 0.001467547694463022 -0.00231418013380963 0.007717356359792763
3025 0.007310916348264499 -0.0056026691272879564 -0.0064275020760593835
3030 -0.0009293645494998215 -0.0056085585751495465 0.006251681626140674
3032 0.03165733035276588 0.04059685772064741 0.004697715242788878
8 0.00031932126258863206 -0.0031237797338279478 0.014935641461859162
3707 -0.009499724373188963 -0.02288241130358306 -0.011305838179503544
809 -0.008842972076860293 0.0026841263995597982 0.00671884614990256
7 -0.01653739039124324 -0.018800852730475884 -0.018466498350911097
1435 0.027154051808586148 -0.0021273292778028596 0.017536336787429836
874 -0.009259406877640548 0.0038139089373430105 0.0110346019670644
869 -0.0032652043470028343 0.0031908159680060478 0.0036962706350480456
875 0.007369828156209541 0.015757600240767746 -0.00036309183909027975
870 -0.0015064133245533647 0.00020214780714257024 -0.0018089437655614288
1437 0.0035246127480938515 0.01284492086201715 0.007634479446976179
3035 0.015360126961688637 0.011844835086182948 0.03578553647738132
876 -0.019454759900733434 0.015596429656439391 -0.0057703231986247555
1436 -0.008145705504918423 0.01760169479775979 0.004232021936976638
811 0.009359502842072397 0.00969313623182844 0.0029669791394205773
1429 -0.0037299287842317407 -0.0016154874607360085 -0.002333991435835216
813 -0.010278970743848712 -0.01811182568151399 -0.020238564549376108
805 -0.001663519281837757 -0.007164153128521379 -0.005872819672668891
1692 -0.0036734798084401155 0.006370251128323629 -0.014029154862101182
3524 -0.03747684709232729 -0.026220343135412813 -0.0003882810352262098
3517 -0.000595805858780413 0.006837006637051156 -0.002349502329920812
9 -0.010142833131097633 0.006986658484583458 0.020078029981708947
1 0.00547167812886243 0.0034639146097926424 -0.0007227836262377929
3239 -0.003979542888979904 -0.007769482307594001 -0.0002709497691664805
3238 0.011019023641525216 -0.02483922057568219 0.008557543248205096
2472 0.0018602810033148498 0.017738520751902416 0.0015542103834302783
3234 0.009418938178747564 -0.0052442387097874875 0.004806355482476905
3230 0.0006608009369990796 -0.00028531038221316774 -0.003807074642026115
3525 -0.007146833325810609 -0.014562496096308181 0.0010064816775858603
3235 0.039546441334398004 -0.016975465192082505 0.0016085640985386762
1690 0.030044389447366402 0.0004654955340963852 -0.00393535520217998
267 -0.0015298774084710667 -0.009249537495154067 0.004624020489354907
3233 -0.00458922730444465 -0.0034987917349239527 -0.0067540959347329645
867 0.007139858231246284 0.003270799928768082 0.0002374980900150053
3231 0.0035707538159847323 0.0011287418884666374 0.006467607543030584
866 -0.0038581145369724307 -0.00013334302573618796 -0.0008879516463062071
2466 0.00313432944257538 -0.0010447888967406158 -0.003858659293805527
3240 0.003084352436701291 -0.010226368353305463 -0.018071653361566676
2470 0.0036435261371294105 0.01878145090797661 0.0027191069225210624
274 0.016585387308398855 0.011950513973600727 0.0034296570237370067
269 -0.00012824976969139857 -0.0016154053854921134 -0.002527299918856193
2465 -0.001474319907829592 0.0018437290626141642 0.0050095297750493584
270 -0.0007325539691095302 -0.006418317785467641 -0.0009806381841514086
276 -0.0036590963893340382 0.02635871937149715 0.023206791150581826
275 -0.015511508407676552 0.010417490944137358 0.004194566879269227
3229 0.0024393098986318492 -0.0034637966710962076 -0.00694082213543889
3237 -0.0007992557334981653 0.02245015602492895 0.020681987656840355
3232 0.0055208680477270376 0.0026810146817336684 0.003737797010911402
3236 0.024908288466262665 0.029914968036364176 0.009383386535491273
3716 -0.018702288565564808 0.01973613993138563 0.03201311410329485
3753 0.015570695261975763 0.0007103173670690402 -0.01706022655165068
3745 -0.0018785214207280125 -0.0007833969615910719 -0.001104042759897245
3752 0.02550007040389707 0.009124938856885338 0.00016107349858452314
3748 0.004831029749284196 -0.005294364203128682 0.0028151732816547445
3719 -0.010418552323848118 -0.003625306718251752 -0.003235024588562988
3718 -0.014162216798361655 0.009188478616985261 -0.01868671015450765
3714 6.551054846816315e-05 0.0036054994500846252 0.004616474421444525
703 -0.024212584119969485 -0.0027196280721109665 0.006175297693226398
3876 0.0020234257846065587 0.018636229693562083 0.0032079598068618575
3746 0.003033103851546939 -0.0035861455293106667 -0.0022860344494361287
3747 -0.002696843758900812 -0.0009680555118246036 -0.001178401147197616
3751 -0.008328302138139666 -0.005187393206539351 -0.002759448454252831
3710 -0.0009483869871936002 -0.005828407882381154 -0.0016737289796705539
3712 -0.010791700314282922 -0.00043384221412542685 -0.007765982357784079
3711 -0.006305693103294696 0.004102529587935139 0.0019451033608155228
3874 -0.008061502537774146 0.0282206649471009 -0.002589005253979172
1034 -8.622498533153837e-05 -0.0013202409863113647 -0.004048567440551106
2074 0.017050603665903826 -0.01923972111051903 -0.025808816673760743
2070 -0.0016040124390125532 -0.010271808662033827 -0.0032649425977044357
2076 -0.020005729514338804 0.00493244710915423 -0.01938387777814369
1037 0.0030725982245376426 0.00010012157150699837 0.004493142066951107
1043 0.03146512993138057 -0.01588375387170344 0.009185901696579228
3720 0.007673965283709677 0.0009654567902580572 0.019113776898673527
1036 0.0017220360686291028 0.001207960707640438 -0.005539835237304442
1042 0.014956473489592299 0.00927378931586478 -0.02745009545276054
1044 -0.00697283553175487 -0.016501824827761358 -0.012891962517837753
1035 -0.0024600535688176304 0.003398501001090207 -0.00027466915047937154
1038 -0.005025391616554818 0.0025039811516022786 0.004101752869258034
2075 0.007649323261757525 -0.01708689779976821 -0.022157042430341438
3713 -0.004814948261284435 -0.001325127538634026 -0.0053795279806458035
2992 0.004206011244758467 -0.0026994442881461407 -0.0005096478485366123
2991 0.006411331129682767 0.0031467597083239844 -0.0028718107085972835
2995 -0.00787252892063745 -0.02466327212731158 -0.010999058139703453
3021 0.014996930514544878 -0.01795314265651909 -0.02093650875645806
3288 0.016929410264523152 -0.02932511168290994 -0.0032960159968835165
2892 -0.021866842774421618 0.001403180724816557 -0.011929973048300043
3287 0.014657504901730909 -0.00034674166927488634 -0.005787424898206111
44 -0.009794261596882035 0.003912167026484014 0.0014882042372250253
2884 -0.0006178461675677948 -0.0019874594142047274 0.0012362067974141747
3817 0.009617980076406553 0.0005625028636499842 0.0058718112464370515
3825 0.012353484411881622 0.026435872358180956 0.022740513558964285
2990 -0.006475639669836105 -0.0015921147368777983 -0.00852971865340265
2996 0.02677264773928708 -0.004986449098397082 -0.0069401027639072405
3024 -0.028614225663836697 -0.02052847373219341 -0.02368200323391322
3022 0.015336189560144455 -0.034614456189195224 -0.00035485939321587475
3018 0.008875800158607387 -0.0037740170456966155 -0.0013554240990631369
2997 -0.0015897725328512507 0.03222074642306353 -0.01854477617371662
2989 -0.003242368027062974 0.0009004208490416798 -0.005283306978282989
3282 0.0033652769801143893 -0.0054353109330129825 0.0008796883873156525
2993 -9.966541849418465e-06 0.005599900181811763 0.0027191873124676738
2885 0.004264398140574698 -0.007302022553581972 0.0027138975722145976
2883 -0.0016992429609364904 -0.003733775020540855 -0.0045163539446707035
3279 -0.0030578798512290286 -0.009696580549642477 -0.0006509589534362935
3281 0.006419905946845311 -0.003311780066838699 -0.001859521945205899
2886 0.0030818324217475913 0.003712972585931859 -0.0006800250843431359
3016 -0.004656110143094495 -0.0002758631548226636 0.002630728549860462
2891 0.0032711268192181773 -0.015292181112002791 0.0054316706018484595
3013 0.0012565765064740425 0.0012467864679949897 -0.004984075905016948
3286 -0.0018375880465024037 0.013251247554357621 0.005017882199923344
3020 -0.022026746103026233 -0.004407581173143661 0.01435587091970966
3017 -0.0034705915687547554 -0.004457612362535252 0.00410813715298501
3015 -0.013526588981775495 0.00114315164136052 -0.0005456321754241676
2890 -0.015800925433260643 0.0015484388240070428 -0.030104819902817704
1449 0.012770691423601464 -0.013673964700896876 -0.025681620217088492
3280 0.002700521778791126 0.004366320615346014 -0.006183606018329726
1448 -0.005042418484363476 -0.016553316385237198 -0.0020063866378192256
3278 -0.0008443746709824324 0.0003388937033903798 0.0004755510980506845
104 0.008488305008829753 -0.019316857733960018 0.005222281455338436
1593 0.026889238443547684 -0.02545395687758892 -0.01582444826338881
2960 -0.00981179952470089 0.009002539349421081 -0.006828951195979916
3195 0.001643054458376511 -0.002839742704815126 0.002069884263746973
1591 0.009810623691035195 -0.003262158550501311 -0.004341199526825497
1595 -0.02523052568047097 0.012778608942507918 0.005514018487738677
3202 -0.0007244712934907584 -0.024445331451103263 -0.008352626183645307
3196 -0.0020295119805219725 -0.0006192746313109517 0.00021404571904720172
3828 0.02965655506688816 0.016875409257115132 -0.007217651847095381
3197 0.0004991466501567273 -0.0018670627462657001 -0.004927368941804613
1586 0.004536563915982321 -0.0011131022625850359 0.0011224254828414572
3203 0.0005258501413105218 -0.0114263697831065 0.029005681431933307
311 -0.013999158368133952 -0.018588223021250596 -0.007497986745859775
1594 -0.0018960721970158944 0.020024277379264478 0.02663706834464203
1587 -0.001743716542984834 -0.0015555953671004435 -0.0031406140500888917
1585 -0.0024631768630542883 -0.006525840613459833 -0.00017551967510375075
3204 0.010111049862123965 0.00044022256071166356 -0.02387856230369365
1590 -0.0008910158038781179 -0.0017789475490549488 -0.006385701010832265
1592 0.02175358013311756 0.009676368311731761 0.002413696980710087
2084 0.006026379285296386 0.008542371091918195 -0.0018457059508692434
1589 0.0021652311972726 0.0001727435566445875 -0.006762111251745889
1596 0.0037080401373968037 0.018692147432574042 0.021792425912699004
3198 -0.0015553806316862759 -0.0063564426873481275 -0.002115801613211422
2085 -0.022051062489796658 -0.018834960221732172 -0.005509827424048717
2953 -0.0010497441672553834 0.0006932547552638775 -0.002650275505910555
2959 -0.01725287396676046 -3.24046828520735e-05 -0.00023010292684170718
3818 -0.002644049837831433 -0.0011430291134995494 0.004202420395514944
1980 0.0037018204245825993 -0.010447774100335224 -0.026233914220096795
2962 -0.021988177971573132 -0.015490895482669206 0.017101297622556733
2224 -0.001706882487255576 -0.0002481727434895615 0.0020144926648577853
2228 -0.005786102650865575 0.02885209341647791 0.011075386030238582
858 0.009922379462143336 -0.0011900953673038 0.003215027651727415
2137 -0.004913434651002491 0.008633129482760783 -0.004122737486938337
2139 0.0004715823957856016 0.0012983814536533908 0.0026848794955740144
2143 -0.00935269548815664 0.005957871574626471 -0.022695431929540738
3031 0.005087222589792322 -0.020789366135229286 0.0063281924032048695
2138 0.0005855859271451042 -0.0007714578917102542 -0.0019545510503957753
854 0.007161138114087777 0.0024167811286558054 0.012718379165951126
1494 0.004348662373057569 -0.00048523865123401385 0.00844856210491024
2141 0.0004864531756343583 0.00023798436274535397 -0.0046432717554965326
1491 -0.004878170867506032 0.005062500569743354 -0.0005797346322576338
857 0.0016094688462293004 0.001866404321038083 6.809139824269817e-05
1500 0.011022285274337431 0.015304590022703218 0.032402401900451905
862 0.007759680477204856 -0.0057319517848316804 0.008978764859346067
2142 -0.004685773774631774 -0.007272091238643055 0.002182947158406181
2144 -0.011874161217739748 0.043870862313629064 0.005475159550016266
2148 0.0018316772383377142 0.023274191276849335 0.002144732800035996
2145 0.01105273120962694 -0.02511478709442657 0.005974556690680118
2140 -0.0026774167064037607 -0.0012933735421152472 0.0030126379622861968
1649 0.0066111982050317195 0.007175226944421566 -0.004497839414002837
863 -0.028995533182937263 -0.009814365218975867 0.005496557747972698
864 0.031195525277872314 0.003230540411295267 0.006095534059870735
1492 0.004316288681662226 -0.0006298191961304539 0.0026362020250604405
1498 -0.020328791868297388 -0.0009011097763411323 0.005991793964494222
856 0.004307883716096048 -0.0038993316402046183 -0.002348540810724647
1493 -0.0012276312082410638 0.006991786941315654 -0.0013965149838577023
855 0.0023629516304917823 -0.0019120485739528843 -0.004160369053092689
1976 0.019825636833528927 0.011299922918239667 0.003930613089137625
1499 0.008691254189541628 0.0009897911440073942 0.005496345875460275
2231 0.016287385011728286 0.004458111118033067 0.004280486601303396
404 -0.0433646651902645 0.02230241824171732 -0.0126493482157115
970 0.004787422752274857 0.014046171937354707 -0.017031991454795798
972 -0.02587916064211106 -0.004374761982585619 -0.029446446690738183
2147 0.0009841456287225006 0.010203189813916564 -0.0035111467523997594
971 0.020972879707326298 0.00864013837820476 0.01173728654868116
868 0.00011038504356185212 0.0013807959898212417 -0.0036783221021696334
3948 -0.009809302304818582 -0.007176531354700614 0.01626291962522981
966 0.001577757213885911 0.00315501363516737 -0.002249019315921212
3942 0.006302088042582379 0.00585024529767514 -0.009817421251357593
3167 0.0100341641667156 0.02350427966389022 -0.010067011732814289
3947 0.014741722211126533 -0.001054474173226439 0.008170994250831207
1652 0.0015071455850267643 0.03925321554415784 0.0002925455983438772
1645 -0.0023446375156747244 -0.008880275347956948 -0.0015318190770702968
872 0.0010879022461051098 0.02737315582740646 0.006352685753150253
3941 -0.00035608700827913394 -0.0031737380003358474 0.0025876648744028127
3165 0.013415526132954438 0.019827832099585177 0.004272541223143017
3166 0.005937338058081693 0.014010504884403726 -0.02740205814042372
3162 0.003287549799835609 0.00032928261732220667 0.0005089340896977311
3161 0.002646271569868597 -0.003949751990154126 0.0010207290449093288
873 0.012925598300359957 0.005405587722528474 -0.005121668387582651
1647 0.003949187047854204 -0.00495668156129805 -0.0012858338446656364
963 0.006427835402076758 -0.005223161513184729 0.006495447848535177
965 0.001968944628442677 0.0036322049372333356 0.004167825504441982
3160 0.001522532413619834 -0.0026380362603559454 0.0010028169078368178
3159 -0.006498201796982485 0.005467901571500211 -0.0019440369786887237
1646 -0.001544037009450241 0.004059859013055614 -0.0018938874295310046
962 -0.00028251302938840726 -0.005030937409885945 -0.0008960971502929282
3940 0.004130773479393618 -0.005344689883495656 -0.00292837915020837
871 -0.008681559663550123 -0.027016382828197343 0.00838906073778686
3939 -0.004351018558504735 0.0016716812531529794 0.0011819975994330249
964 -0.0013028258938361007 0.007289582199345013 -0.0005696062620907424
865 0.012850739925114834 0.0008181601842212031 -0.007991065606611707
1653 -0.0034413355589769904 0.014788017919043056 -0.0014280505301563402
3168 -1.3329106996135485e-05 -0.009110414890185912 0.0004770967284512729
1648 -0.00022017735524058521 -0.00031003366049811847 -0.0009194317061991517
3946 0.003442974075099892 0.017018405778652212 -0.02212910681694069
1651 0.005892753437940578 0.024378341043103408 -0.01160097554912219
3000 -0.0010155566711103322 -0.007922732216164052 0.0011040561464120188
852 0.006668302861451912 0.013006181249057931 0.0025365314140110575
844 0.0031010342295731057 -0.004071901310860268 -0.0012655459465812182
1480 0.0003822001749412291 -0.0020442702468624705 -0.00037272385999699207
841 -0.009191647598208489 -0.002653976616094089 -0.0011184434299133317
333 -0.013160892039707342 -0.001687214944540382 0.0023621457885292852
845 -0.010652965245151014 -0.0051627837585377 0.0027370242718729163
961 0.0006914664582132665 0.010078652483451377 0.003923037286008448
419 -0.007934600351191383 0.003096980556287468 -0.009682728885790503
968 0.010203067506801534 0.02951100874445443 -0.009789255794587897
967 0.005608004422303327 0.014307133012677418 0.0014256068861886952
969 -0.004242271117774055 -0.031384632212536755 0.00687268947278641
1488 0.009903468094881091 0.011922031601764745 0.0258967941552236
850 0.026355952517284974 -0.0041476230445182645 -0.0007215848140188747
846 -0.001606720601301106 0.011194484171649673 -0.0015496443537358448
849 -0.01630214512480583 -0.003831759570534311 -0.0005123427513147573
327 -0.004859874400064186 -0.008458308220411066 -0.001872120075452893
843 0.0025206799207767713 0.002496552697299407 0.0035389158037651596
325 0.0019267873967409761 -0.0011881989814283046 0.003154146914378857
326 -0.006317361874153682 0.002681179887383679 -0.008465898316094898
331 -0.022261208869956722 -0.013024039174716107 0.014653750765383108
842 -0.0030342711746184385 -0.009208377579131276 0.0031899750673450395
332 0.03320248139221122 0.004591686661793864 -0.01784205729104504
328 0.0006482587154538277 -0.005921992417812185 -0.0007941594857200495
848 0.03524998601333106 0.008056736377687862 -0.0187985877773529
851 -0.02310264530730068 -0.0008959600792872069 0.007457225861302124
2931 -0.003351386468304732 -0.0014694877330689777 0.0027361173496850476
496 -0.0008570364389509363 0.002337507642306424 -0.0024147141213650076
3610 -0.022365124365286083 0.0020566918403173216 0.012554012766621542
3284 0.016832862220516026 0.004809042888578618 -0.023992261792761847
504 0.032658239583170746 0.024303770033802113 -0.0337842303758506
3612 -0.02652819806489063 -0.03475828611438848 -0.00020858621932560021
3605 -0.009793298491713627 0.005660526592758568 -0.001707835791729976
3606 -0.0052252292456560065 0.005802300978867329 -0.005890783432108579
3603 -0.0033994990323453164 -0.005124159857531786 0.0026359083088045086
3611 -0.033655196078601755 -0.0014256455277772454 -0.03362410627878822
2935 -0.029534602274660902 0.0213532145267978 -0.00491390273198474
2929 -0.001801578197936221 0.00107594358219489 -0.002191606150247804
2930 0.00028164162090421813 -0.006902576962311866 0.006730766144017314
2937 -0.015261027220058994 -0.004600762882851224 0.0052904247133774085
2936 0.014388416162052477 -0.000833107516222198 0.011932466621797568
3381 -0.015172540794238572 0.015474904436982306 0.022431178114070287
3609 0.0042634067042431525 -0.006500639102889583 0.002798544168269016
3601 -0.0024419323105889378 -0.004582738779522495 0.003741806942914811
2994 -0.002834769246026441 0.0016339743163354596 0.010755223668392653
3607 0.004312511956585024 0.0038945969994951565 0.002352738688515508
3608 -0.0020989373769045878 0.007934572228751964 0.012157725443615434
3604 0.0031023129806549317 -0.0017350288352967014 -0.002141228305468414
3602 0.005347485611558687 -0.0015853027788877575 -0.004647044002116323
495 -0.005630141663971049 -0.0011719862900380778 -0.0019676677436793856
847 -0.009379229833024088 -0.0223152811916028 0.009596069788257165
2999 -0.022247609905350588 -0.012978469576032018 0.006664075947482067
2932 -0.0003236997330077533 -0.00012521403620602 -0.006687140169321712
2998 0.0055359273424954785 -0.005708804127430855 -0.010372138259245111
3277 0.0028745468242118923 0.00249835835133459 -0.000934643388477122
3283 -0.007201602991947261 0.008120935570718347 -0.012101305205314062
502 0.004907804413935536 -0.010618479277415483 0.005296506086285252
2744 -0.03112461847613667 -0.0034566223848072728 0.014824635708506088
1979 -0.012719157584305533 0.007570879691935296 -0.026852664085883448
2956 -0.005912774038854625 0.009892132119891995 -0.0007858763264697022
503 -0.01885168132233538 -0.013433119177930868 0.002950348078439107
1978 0.01081901482521901 0.009773179175773994 0.00772800517720568
498 0.0005604607242341221 0.008871712099209676 0.002104745521871104
3271 0.008147343345464159 0.00021064890987234028 -0.012317451320914849
3265 0.0038294087724470606 -0.004986990047457741 -0.002054229739337966
2964 -0.0032258797663726304 -0.01723338105614164 0.0015327095642290879
1974 -0.0004249208679072573 -0.0037104200556463776 -0.000831343132640357
1972 -0.0005527341272234367 0.000596099666799585 -0.0003124841873356695
1971 0.0038266998863257843 -0.0006152849172693574 0.00026947078876002356
3269 -0.0025386639646098304 0.0010869283111734104 0.004577441343086448
3273 0.01665969168787897 0.013972620107487373 0.013094370937860532
2688 -0.0022073671926626658 -0.006674652555651094 0.0006665540566924084
2963 -0.006315495464323658 -0.01038914800749071 0.013229101224727842
3285 -0.0050462617000860115 0.0031492099940622605 0.011419904796507447
2686 -0.013589887370773285 0.017024374964605477 0.0144934856425554
2958 -0.003501911878605515 0.003378232373970458 -0.0009647097457561963
2961 0.017595253758979877 -0.01122727589467707 -0.013884259637865663
2957 -0.0027649618811259706 0.0022070090941001745 -0.0027745026652588453
2954 0.0019591876917916763 0.000988981190772565 0.00425373768308078
2682 0.0007502244121830407 -0.005792628908506063 -0.0022136455704834007
2768 -0.051787392501671366 -0.009672183499774023 -0.03006711523960809
1977 0.008583446757513302 0.008967379845814414 -0.024883340166937832
497 -0.0009944117779622876 -0.006631685894245029 -0.0016473262858430905
2955 -0.0034231656908792025 -0.004641939986068512 -0.001340020732482803
2687 0.008159205385663202 -0.04418954386184686 0.001511579604934791
3267 -0.00550762416569284 0.003298229146508005 0.0009292397626566609
3272 0.010474700472346825 0.002973013568971003 0.0043100052482230805
3266 0.0016966372393697462 -0.00321120668163638 -0.003234470515092852
3385 0.006358237314603358 0.0037400850357948785 0.0025611040700395413
3390 -0.004989781208153104 -0.004215101884882219 -0.006678671659472387
3386 -0.0010739175161681837 0.002757794297936231 0.004088424842003368
2637 0.023691106206925685 -0.03711382530387754 0.014996161021915332
3391 0.007406267066045672 -0.016121727205835372 0.011375349110950192
2494 0.0148319912776818 -0.009638111833158327 -0.0015487861306884942
1655 -0.0033532461993554005 -0.01952486515968245 -0.010575735949201692
3058 -0.022214559378789092 0.006926681608986855 0.015328150082974222
3060 -0.027884508881935825 -0.01710540792575603 0.010012231513510885
2373 -0.032092502342280796 0.005401373450213346 0.008937593430571857
1654 -0.024330730842930897 -0.006599394490477212 0.011364619889370058
3926 -0.002499932725009151 0.001684645791940967 0.0027624570547137703
2490 -0.001778520012822619 0.0014809461182397191 -0.0015801374179747105
1737 0.008606773426800435 -0.0007995113580551754 0.03151568300071841
2495 -0.016249917359684608 -0.023969148676274737 0.012856919644803334
3393 -0.0053586739319458595 0.022581795088836655 0.0059527703166022215
3392 -0.00416501403937986 -0.00046342084136396074 -0.02038414334126825
3389 -0.00484717686373925 0.00024114894600395082 -0.0016687883549160016
3059 -0.006321816260779856 0.013516972483379413 0.019714323430086493
1656 -0.028844912637498537 -0.012000503764063619 -0.0019220187689942539
1736 0.019955241368310117 -0.00899182042903723 -0.03194353080550234
3388 -0.0014345582735671727 -0.0018086276043533943 0.004738340761919339
1650 -0.001955456511785662 0.004497022573905794 -0.0005964021171951129
3057 -0.0002240787010644343 -0.01072148569500361 0.016327837190338305
3055 -0.007454866245402645 -0.004070732665201765 -0.00364283863852166
3049 0.00588937515217755 0.004069134211366623 0.002611672603273671
3051 -0.00795318137079068 -0.0018774237176723216 0.002320282148167438
3052 -0.001321469376854479 0.001153318545309547 0.005000777315484433
3054 0.006155812477824079 0.003969780606123484 -0.00396759704243149
3053 -1.3472724928823314e-05 0.000917325697799865 0.005318887499241707
3056 0.006408137364932447 -0.026805125547293456 -0.010955528900601794
3050 -0.0019193616989606952 0.001294013429839661 -0.004221469657412334
3387 0.003533952510155366 0.003523050788138553 -0.002994810298138727
461 -0.001709572430514266 0.005107494993356711 -0.0017537591732743598
399 -0.0030808606647212754 -0.004349331011395865 -0.0031463231649944334
407 -0.015559209359056943 -0.0065035719641488385 0.011703859216835583
398 -0.00211916332416351 -0.0005989439054952894 0.0022889939701073113
2866 0.010647080489010379 -0.011376201225245833 -0.00542552578308664
401 -0.004513434325093007 2.5622172701621776e-06 -0.002228912030888024
3565 0.00024061046736951428 -0.004100368343406806 0.007194648341424993
3936 -0.004183215375205426 -1.870870193771365e-05 -0.0015185487554995995
3930 0.007616120402078871 0.0019298130451735804 -0.005642582472489519
3934 0.02153633421144051 -0.0009677912772022242 0.031965937149571716
462 -0.0016341580338968935 -0.004649533193906188 0.0038292712654770865
418 -0.0014858488489698128 -0.004787110617839986 -0.0252071033021049
468 0.025121330545149628 -0.011485499455392657 -0.00730348968185782
2371 0.004585043057145892 0.004227167428716101 0.016069716468812785
467 0.024041849422145593 -0.015034228579063008 0.003494514476818124
3929 -0.0005630582353258973 -0.005174980233217858 0.0005329519876475695
3927 -0.002318655018698461 -0.0024442450073875518 -0.0018998911428717764
3573 -0.003913255466298611 -0.02860305777954961 -0.021417415006349055
3571 0.00041682105908211165 -0.014501183095356043 -0.015532464158565703
3566 0.004931666574780456 0.005371424923945397 -0.006884185655840384
402 -0.0005437579057711398 -0.007230961776573473 0.0026226318344516547
2868 -0.010000537480519702 -0.03233909605209309 -0.010834911960614677
2862 -0.003383250060089009 -0.0014161064100847189 -0.002867940174190512
397 -0.002252578321856549 0.001485883123162381 -0.008804057984348123
400 0.002004384815313195 0.0010100895045201685 -0.006583015596593052
2867 0.0029977754100429473 0.024668700809852638 0.004544022989774946
3572 -0.004598970591037953 -0.020402915583691852 -0.012191867165441753
2861 0.0025809806864925374 0.0007836781323130602 -8.782634922407726e-05
406 0.003465567112923562 -0.02288168306498813 -0.002954025742565806
3935 0.004524369884814252 0.009482368691170385 -0.02670186541178891
405 0.0024906389160916347 -0.013178972366238648 -0.0021349931941388473
403 0.008748066184011293 -0.020167304634407475 0.01394765708072975
1018 -0.009236875036828934 0.01781360462333446 0.0018834150164517044
2863 -0.005418332538948057 0.03149393488916621 -0.04470814815430956
1487 -0.0072426626291441296 -0.01466985792614413 0.009228694700127521
1020 -0.019251614016727616 -0.005792259449762974 0.00016640714918838122
1013 0.0009180338931689285 0.005116126303526133 -0.0013022844731138913
1486 -0.0075220362307761995 -0.006956108016488015 -0.006674174392350186
336 -0.01429421560256899 0.012128597291985016 -0.004306402155780799
1012 0.0038749081391450603 0.006534783006489749 -0.0047828361677820655
335 -0.0011635085411865172 0.020310106938895664 0.011282707843146868
2858 0.0051981566690493175 0.0038558888955569346 -0.004249147106167038
1019 0.020385536989902586 0.010419264481001092 -0.01591982258203362
1011 -0.0036868582661571505 -0.0006284251315114095 -0.004444819346189633
2860 0.004266856292258517 0.004246597598740711 0.003612735803819803
414 0.0013014528169649896 0.0024547274207773117 0.0027938995672785478
466 -0.0009328338054152994 -0.009303861016543503 -0.003923830796576976
2859 -0.004484713810214665 0.004538094869802717 0.0037179016795373483
1014 0.0024432480537356217 -0.0012533116204310427 0.005853462532276892
1017 -0.004940326248214629 0.011232536229305033 0.006413873670814299
1010 -0.005942351601783417 0.0012315941725574903 0.009383454864275118
330 0.0013208623892492853 0.0009570397171885409 0.006495499220530692
329 -0.00474932959340738 -0.0026901764498862917 -0.0061307275621789725
334 0.004764932629300299 -0.006337817983965776 -0.010350447255779867
2865 0.0202633555967471 0.011942589370147317 -0.012455000718500076
2972 0.00798188833497376 -0.022187112051084295 0.001793111992380237
2864 0.005401759800533187 0.01641110740476671 0.0042224543881894784
1482 -0.001288663337976781 0.0038183564528233515 0.005667896575537461
2857 0.0002665318850490879 0.004067778339091544 0.0019518521775226383
3380 -0.011361609144851547 0.021236194511677353 0.018635403558081406
3373 0.0010828873547645615 0.0014708505806717252 -0.0014852829633728664
3379 -0.012048760904334871 0.0009284076669269901 -0.027661829930262758
3383 -0.005973321776468556 0.012628369891444597 0.0014161957820147469
1967 -0.0015396460199826175 -0.014120026793089423 0.0037524316120724783
3384 -0.011395689051834986 0.0031031881023372 0.0033213997048090133
501 0.0007221378471662773 -0.031099682860796007 -0.007765583777743308
3322 0.010610041648564597 0.02577221492379694 0.0027138235129235294
1718 0.0075828973761903175 -0.001625288423442705 -0.004369822849470832
1963 -0.0018866469500826524 0.01216756197709887 0.003260892039612277
3378 -0.004513016523124761 -0.003936924981850624 -0.004207418197846973
3377 -0.002158128740837827 0.0032583547750308795 -0.006302168950940286
3375 -0.0019088887516350665 0.0027579093892388202 0.0033867043952455584
3324 0.012298106814780184 -0.002440051049938278 -0.014251731285324101
1968 -0.05139346935991786 0.015460869089659676 0.01754499227959462
1962 -0.0030239242313990404 0.004942727171699517 0.0001628282783497566
1966 -0.021496915116926803 -0.015160674174013657 -0.03762556913533775
1960 -0.0020546623017936123 -0.0062223586568405905 0.004035122886381733
3376 0.001672916010767517 0.002560808117809566 0.00811677082000414
500 -0.009338598005074798 -0.008474257617826893 0.009976958285840746
3317 0.0015250047130702514 0.00019588640525415813 -0.00258877916718399
3374 -0.002977546137736633 -0.0016143442096291092 0.006942299465418612
1961 0.004269807829650394 0.002205508301191658 -0.005983233121628512
1957 -0.00015317359715828993 0.0005455792513903019 0.0017392942332009177
493 -0.0006922566303158254 -0.0015524181997882216 0.0032965965703340198
1958 0.006962892049296677 -0.010262554872697652 0.0018830272860316775
1959 0.011850935074551499 -0.0077652299770811775 0.013008154346486465
3382 0.03122518618417128 -0.013460312849518942 -0.011514379957836557
499 0.0008277205156296417 0.018231090843138256 -0.002602967966108404
494 -0.0008937967167983758 -0.0005197327345010315 0.0020095864843661902
3318 0.004292053899019718 -0.002583588839334309 0.0008876195296340949
1250 0.0013357376621881802 -0.005127937580478709 -0.00885468102507689
3790 -0.02270243636155757 -0.017646309862502815 -0.005433941087194965
2162 0.002033082692626453 -0.003844731306411731 -0.004426670908237493
2167 -0.009625690797129967 0.005291416138619918 0.01587658789596585
2161 -0.00749042854643687 -0.0057246196220121235 -0.00630177745251936
2169 0.008964580483876754 -0.004002821627111962 -0.0051979872679145354
2168 0.003307605761792537 -0.0067099618848970935 -0.014127891220366498
1256 -0.02399440386503562 0.029270413515323154 -0.0039884890773561115
2541 -0.013940344762003072 -0.007138340735750779 -8.107423401470215e-05
2533 0.0072623731128346304 0.0020495865686630936 -0.003922125985801746
389 -0.0014736043622914031 0.002253541758093688 -0.0026017982529875946
390 -0.0014783202115939394 -0.004639203697002112 0.0031677308062338003
2534 0.002323694930396836 -0.006170428860328162 -0.0015951713719947547
2418 -0.0021781742681860803 -0.002217897814848629 0.0038655668393827443
1249 -0.002220606572662904 0.005114450418010813 -0.00043675293221291135
2422 0.03356757621292431 -0.00015127888719495593 0.013011462009496414
1781 -0.004179875433619033 0.002741114303273172 0.003460290818791956
2540 -0.012689678764415572 0.01890363815772701 0.005167531418793123
1787 -0.007008770737444618 0.011087326386449525 0.006085605332088509
2535 -0.004736650069311738 0.0013402859921720896 -0.007381796470653627
1257 0.0028321336588466445 -0.019361317365226057 -0.003737634911820106
1975 0.028531517109072563 -0.0031286960531867252 0.01466993204476152
394 -0.0137647693851143 -0.019805292688302088 -0.006222496874713046
396 0.01622703058654465 0.0090824087304642 -0.01222884629552113
395 -0.01126972075707734 0.005330795203432942 -0.011592757924740281
1782 -0.003735542967544057 0.004556694882280908 0.002459474685808108
1780 0.00746158663443625 0.0020808809986622456 0.00042531617144809034
1788 0.0022380338482867273 -0.003484991455279023 -0.015065619013182914
1786 -0.005047410212641129 0.015109204318165302 -0.0101103384822326
1779 0.004809475021647223 -0.0055896069833612965 0.00038821415773449794
1777 0.0016149853380300683 0.0016149484477775246 -0.0029626805142528383
1784 -0.03360430699857345 0.015880560731462795 0.004652826301746307
1778 0.0034676002075805885 0.004007700234716905 0.002969916012710632
1783 0.0065123295745156805 0.008643478835612338 -0.003314297019993315
1255 0.007545306194632592 -0.028052552990737573 0.01946527469735533
2423 -0.008937181598843514 -0.001194432309481109 0.01136909756055692
1970 0.002197474006168698 0.00429064527439562 0.003631961778866846
1969 -0.009870770936171086 -0.0003902307695581021 -0.0024074259309219297
1973 -0.0013299608231762947 -0.005416393410065911 0.0010344699648125442
3497 -0.0010580510980397148 0.007267299851150606 -0.0010448485589257806
3815 0.010188023794879823 -0.023288925294011782 -0.0030309365647449927
3816 -0.004671773376740116 -0.020173102295546162 -0.004197624947857317
3810 0.0010895951886704166 0.0023022857893647388 0.0056538935886774324
945 0.0029970027666323873 0.008112034329624086 -0.027621219435278316
943 0.011897230970498399 -0.006187668173990192 -0.0039304358358670625
937 0.0033606207350747124 -0.001478616613685772 -0.009394701635254622
3501 0.017243399757967376 0.022462400467231632 0.024383222931486224
3496 -0.002801079716794004 0.000379749895799363 -0.004160945365638492
3495 -0.0029910828707851497 -0.0035645427703607474 0.004707281187428509
1125 -0.01617732500841692 0.0013325336951718813 -0.004764965935019639
1520 -0.01816871116026796 -0.006593028790675653 -0.022124402052226957
3811 0.0031945300632311153 0.026923215769772794 0.01992922288812992
3812 0.00016832630325022108 -0.007514256375530999 0.0015495316506639956
3805 0.006689564765825687 0.003930433056294394 -0.0002204108263114351
3809 -0.007676177114329045 0.005577074701116378 -0.008148555104417074
3807 0.0018151035810605289 0.005379379078118139 0.0077285157411909325
3806 0.001017612533409069 0.006423649686223074 -0.001697748868972063
1118 -0.002810768025282636 -0.0020758852840488825 -0.0019184363629535703
1117 -0.0075421151006471905 -0.002321488427676429 -0.003840117480598827
1123 0.01394448336098028 -0.02655704536980573 -0.008068911360988012
3813 -0.042967842717313486 0.002266945571737229 -0.009708269549318466
3808 -0.0008413459978551655 -0.003237396866820651 0.005830486856839362
3814 0.010988926331707161 -0.00561891556767049 -0.02090774162861917
1124 0.002105459778471613 0.00815053618770939 0.01191225968624031
3041 -0.0022750245677442093 -0.005591821144067455 -0.0007248391012996538
63 0.006274538708400025 -0.0010551801744021286 -0.0011111452285853753
1574 0.002450876552669276 -0.0019253176675670999 0.0013985215473064079
463 -0.012233200823045463 0.016702136449716163 0.024462265152026857
1119 -0.0019530886150488196 0.0038461968171686995 -7.793707953304e-06
3038 -0.003532341481064518 -0.0004934022904278261 -0.000721704913942026
1580 0.007106415643990912 -0.006337663218524863 0.025436659549762382
64 -0.005954833530702694 -3.204414542748379e-05 -0.001905903188645012
1579 0.005140452801292081 -0.00748165044588684 -0.008871242635878292
460 0.005054087432524388 0.005020401784339718 -0.0036733545619708837
1573 0.0008838003823845354 -0.0030965574077025065 0.0053402185438923035
3044 0.0010769859560382066 0.01618324810637161 0.001085875294307169
459 0.002799661537962846 -0.0008572158115078117 0.012601177381042624
457 -0.0041116877407002175 0.008648086684097328 -0.006088082235121667
1810 -0.01851221489806077 0.005359233506097538 -0.0059641050287763875
464 -0.005147724078423484 0.007450841474827034 0.0029401951617583624
1121 0.006170399918385938 0.00042121785425573103 0.0002712447814942942
1122 -0.011097428178284597 0.002309369701797486 -0.0028563604594158258
1120 -0.0013459297333117874 0.0009342298300639004 0.003134059536345471
3039 -0.005717715077701421 -0.00557614933472286 0.007768435344027856
1741 0.003391431510380855 0.0026837130975011733 0.0004922164396871181
3037 -0.003656488766066061 -0.00043059256597907154 0.0026145260424707203
1747 -0.01567899238723315 0.011492748023427111 0.010451304968054072
3043 -0.0206970458115792 -0.02696552728963743 0.005665863113333233
1748 0.015007137960166369 -0.010855213756109898 -0.014046287128708061
458 0.0013871383487621064 0.0091561512805189 -0.003016262114214316
465 0.019802862319068113 -0.006490830449802513 0.008140441339430798
1581 0.024067621160873312 0.016475832833465605 0.00938777008766154
3045 0.02206871386741257 -0.0033469114187105807 -0.0020973411004834948
1575 0.009570765501055121 -0.0007680631052454706 0.0027888741045378
1749 -0.002086497594484079 -0.004974537452021388 -0.012742410585043058
1811 -0.011851690843709661 -0.00015634846273218208 0.01949744051005137
1126 0.0012358259394138716 -0.0024730167572561326 -0.0005850861827773209
27 0.004024307868271303 0.0007645929536468083 -0.01132048181694813
29 -0.0022210020022163076 0.004009288936721112 -3.018824204355843e-05
36 -0.010976597351218673 0.0036436525040104027 -0.0009047738400805681
35 0.012751713574568795 -0.017095936673988964 -0.01499208038120452
26 -0.002581951655329461 0.0003649784873562074 -0.0028115140648304776
30 0.0039709247607690725 0.00026542358594708673 0.006005104543380075
34 0.010552104664900908 0.013531393799759725 -0.004237785721006214
3309 0.00677554205230267 0.00043921462719187824 -0.00521864598802039
370 0.01898935735936442 0.012656007158370442 -0.01585868402592278
3457 -0.0004319856002453095 -0.0017588834922811925 -0.0009832056607321441
372 0.015426079432554028 -0.03658411249732833 -0.027825162790439725
3465 -0.014416286473890446 -0.022741708704825354 0.01572235256832425
365 -0.006662967904985963 -0.0030079841698189844 0.0008994113733066253
366 0.0013449669129786575 -7.145426066622016e-05 0.00972292967278697
684 -0.006229107075740738 0.012139982022177443 -0.012987239907583546
371 0.009715410437162864 -0.010851818614600755 0.009124807508264606
3307 0.0038313279187273223 -0.006074344007956363 -0.0035260014445675815
3458 -0.002033311258021641 0.0032875063725534568 0.0015306955026716687
3459 -0.0014242995047046836 -0.003451295875805419 -0.005499914232883047
3461 -0.0006932146482938171 -0.0016434457356176596 0.0067462444604763395
3462 -0.004524197368407984 0.0009526228490825584 0.0018826751558903183
3308 -0.0007851028975768526 -0.006794621467635431 0.00024978930170734936
3301 0.004499802799828405 0.004190527697319941 -0.0011916695528996985
3467 -0.010786947758810117 0.014427201778625063 0.014422709251818702
3466 0.012206614335317995 -0.013182943264861822 -0.0008768001597705646
3463 -0.03752079109212606 -0.002055846234767104 -0.022970525576763517
3302 0.0018686749229543068 -0.008743681751879057 -0.0019297355325993543
3460 0.0023722605531885546 -0.0004868950569457563 0.0032300230784325515
3468 0.027185739480927118 -0.000375113067782997 -0.014070178813306527
613 0.004942459127303132 -0.00278318864844255 0.004831727088418484
680 0.00809845789430881 -0.023876338841002365 -0.008669319325378252
3643 -0.0004732760804887463 0.017518399408274345 -0.003574177441892336
678 0.0009814649833464416 0.004537638989120907 0.00025776191445477884
681 -0.015148664487343392 0.010526160281161859 0.004785218807454708
676 -0.0017034184137524428 0.005525417170145136 -0.004607466621634164
1965 -0.0017258507137322342 -0.016060220638769787 -0.0014345140354319076
679 0.007718429010749201 -0.0028441318988735053 0.0038923156465018255
674 0.0018669963720847373 0.003227855795823962 0.0034821891364749495
677 -0.002150914169121195 0.0037479848894053777 -0.00197948610244576
675 -0.0006562209582759304 0.00035533451575233234 0.0005033865167614552
673 -0.002908397143144229 0.0022444351469358592 0.00024931653009646615
1548 -0.01713681355256303 0.0014143975555063575 0.007729395443520519
2165 -0.00181481554156363 -0.0076590871019267875 0.0035123403503538654
1899 0.0058502819482801486 0.0019463324974952378 0.003718115334197995
2171 -0.01127193810215709 0.0029592856684044155 -0.0038489930905981824
2170 0.008144035747562915 0.004153519809823246 0.003823684632672303
621 -0.017597650029493345 -0.004207886415263194 0.017420985858310877
2166 -0.001870252606831006 -0.0050357309462619034 -0.0038619860099608043
619 -0.00016523681393838593 0.012206295437092375 -0.02355575760576135
2172 -0.0039436510199652546 -0.0028439196604830613 -0.004088692885553567
1898 0.003043135064351402 0.0011324646504732674 -0.0008709816252183077
1964 0.039073349552704535 0.0014428843742554508 -0.002272406868751561
614 0.0022570919634155545 0.0012358617368897914 0.0008036979381541902
1721 0.0018439689401349157 0.0005218128549888006 0.004661952195235761
2539 0.006113079561927789 0.020004484031350245 -0.008091381253483809
1728 -0.006431904119098205 0.0010343091537403006 0.016858860321073216
2163 -0.0030037169351320087 0.009772712047317417 0.0016537964791865675
3493 -0.006622208402252999 0.005141471518620123 -0.003944247816353679
2164 0.0028133069978314943 0.002265615161903594 2.210714445433876e-05
1726 -0.010700402561151463 0.0015992822772033972 0.012380229390947855
3499 0.006250254063506091 0.035032719380366145 -0.037359186036379236
1905 0.007125471499103888 0.0029689971082310957 -0.0016326305212876636
3500 -0.008212719235256807 0.011631300829909274 0.005698328110231052
1722 0.0006195668369306395 0.004014243499527919 -0.001749685489106372
1168 0.000500246749563624 -0.0004100484882653438 -0.004247086145175831
1897 -0.008725771593117018 0.0031832080145377294 -0.0013780750050009795
1903 0.01021941767074047 0.03551956772941508 0.021475948468955015
388 0.0033345969157813566 -0.0019771667472930623 -0.0041240783759055565
1904 0.0025182875215864356 0.00040993090164995004 0.0009049705677191164
2901 -0.01186440378696402 0.00019745595198015025 0.028237390636663137
2838 0.0025415052926873283 0.003615886499145913 0.005873259582718158
2900 -0.022976460268311447 0.01883893577120379 0.03149999005010113
387 -0.0009533489465531267 0.00486631078917065 -0.002063529330710316
2893 -0.0031417753662090235 0.001715665885930753 -0.003692454714821737
2843 -0.00616786505513842 -0.03400966575098944 0.006622665495332949
2894 6.120335901159049e-05 -0.010344266354834378 -0.00799287100092645
2896 0.00011427220093990136 0.0026334270478658175 0.0015975518304653367
2895 0.007555097640852897 -0.0018868585295513103 -0.00392725808387182
1170 -0.005426119622782292 -0.00012745638089537003 0.0003652052765469073
2898 -0.0035292321358515485 -0.005580399156784982 0.006865617311822432
1176 0.0028470574662729366 0.040103328965989185 -0.006562909945210922
2897 0.00041004030290001954 -0.003547538329973927 0.004349858948123099
2903 0.024757282324570886 0.031500230086745996 0.020127476441409844
1174 -0.007034497376409086 -0.002100487026443597 -0.022787515475345445
3494 -0.0030622519489879214 0.004673332145045708 -0.0006508828767214327
2902 0.0007082407940789559 0.012601935205184992 0.0066515732753270815
2904 0.02540773994378856 0.015658688068552737 0.0012925942214428064
686 -0.0010490146642318213 -0.005067918649810842 0.0006458950521590843
692 0.016212864392002098 0.011111095574140363 -0.023091402940820006
3498 0.0018286545746305873 0.0046611040532499905 -0.0019515302622810766
3504 -0.04300853332127224 -0.0005369957570978307 0.02430430880018768
1185 -0.0021783687504474208 0.002043722282412807 0.0006454027413661968
1064 0.0021919641224507707 -0.0142258963906327 0.014576111100410589
1057 0.000912658609679678 0.00505129399975543 0.002616176581954152
480 0.017110464785730608 0.029159395188226387 -0.0257467985293629
688 -0.0013249286684855653 0.001941715283200949 0.0036679707198483966
3069 -0.046947869716975156 -0.022662947983614363 -0.01267497712742718
1460 0.014438696973123484 -0.03318072758615397 -0.006794937868607759
1063 -0.0023264764760518673 0.0003064118288982865 0.005100611543137386
1455 0.0016388245206013189 -0.0005179275471181804 -0.0015514747126961865
1454 -0.004705806362348648 0.0006019343616846433 -0.0013091799179399727
473 -0.0036453719546187726 -0.0015741464745835767 -0.0026588599587127203
472 -0.001541780945075804 0.0035159122109427237 -0.002359857553682596
3131 0.017616414917897057 0.0042487019179938326 0.02162434143191289
3132 -0.017654829580599957 0.011299187410767221 0.01295291998127399
1184 0.006407760961745928 0.007012659484776507 0.017998018510080253
1065 0.00013613631850896055 0.018862900630885547 -0.0030544424605875274
1457 0.0043916919128286925 -0.0020239307621881253 -0.00404682145360625
1177 0.001966193893916609 -0.006260971138621531 0.0054815310991895485
3126 -0.00276159843585063 -0.0040095817842000035 0.004171720951205589
1464 0.0022981559231999476 -0.016093976840656957 0.00602823746954792
1459 0.02188443268319639 0.008128972224399683 -0.017295410441718877
1453 0.0008355906775998106 -0.0016092801406437152 -0.012804897436654762
1183 -0.004044895101332556 0.01015627843478792 -0.0021940139761218473
471 -0.0008904834304001007 -0.003078176791273449 0.001665329951866892
3130 -0.010422850435466655 0.0028954722831612506 -0.006185554009289478
479 -0.01655650508502518 0.023611426020959666 0.014147070673690048
3124 -0.005075705303749789 0.005068039316234529 0.0010497508961205412
3123 -0.0032455272393548005 -0.0008592321130675584 -0.002661954750724452
3122 -0.0032352383304060078 0.003969586109635884 -0.00158383033493097
1461 -0.015688393679015516 -0.006318801634119101 -0.011892859187518215
478 0.026174530978738217 0.004269214538310445 -0.018866658837862222
3125 -0.005800679173986409 0.0035971759876602116 0.0020827213342505535
474 -0.0038805675515869455 -0.004434453314334064 0.00048686363279263907
693 0.0077784719037462475 -0.008847116390247182 -0.0012785054210317686
689 0.006118186065626103 0.004570858624618379 0.0048804788137965845
695 -0.012644772039191014 -0.021219285492490948 0.01540129281556283
696 0.01362877133316029 -0.02513363025378921 0.02194117141717945
734 0.0037519671608019912 -0.003925734451775296 -0.004344063053257394
1866 0.0006663967825707407 0.007543121336749326 -0.00788915944016701
1865 0.004398451134378742 -0.001287135074548889 -0.0008651772170934655
1685 0.00564091203409135 -0.00824641986553049 0.0069769736958117876
687 0.0014559554261947387 0.0057560208090279555 9.324120937154655e-06
81 -0.011142758163582655 -0.041710187324468455 0.017775542734520436
1688 0.007772694834303363 0.009326037653342547 -0.008037889735248393
2928 0.02890044240978117 -0.000775903111532886 -0.007776392464319101
1872 -0.021736588336582197 0.01009284404987085 -0.0032099660205240554
1870 0.019872296841097835 -0.021407001442412754 0.02998322298164423
1404 0.013444047842778962 0.026154608963871454 0.0007724879468319196
735 -0.0013297898152374954 -0.0006084816602330627 -0.006413966854554876
740 -0.010342886844333748 0.014833714597672232 0.007931493884646283
741 0.009547401214652824 -0.02364730978308803 -0.023611705984081414
1403 -0.020704420613144682 0.013414380746054123 -0.0002572514631790166
733 0.001034197367819695 -0.0028641517873538706 -0.0006391444025099943
1398 0.00146459052375984 -0.0031084914727382046 0.003391142098639666
1402 0.029010082377207654 0.020917929332890908 0.003217413668420731
1395 -0.0019586833122864026 0.0029477791887666635 0.0008885285155422175
739 -0.012010266151532464 0.004840400243870219 -0.010257100556981287
1393 -0.0019071723378039055 -0.0022952967651412334 -0.001109455667964323
1397 0.009478998858483799 0.0029734512926643548 -0.00010692270915843662
1394 0.0007762799770848419 1.3305634971420818e-06 -0.0007419907283128649
1401 0.024206573358755926 0.0010112600723551897 0.0050887051465843235
1399 -0.006350310136923659 0.01684707214794589 0.004154506851906982
1396 -0.0001259525978696064 0.0008906473932525853 -0.008405147617540812
694 -0.01466826206603173 0.0072302032869058785 0.004806447436909611
690 0.0006681799241446733 -0.005974040519699671 -0.002857910029731747
2095 0.012719253091055852 -0.012157731538886333 -0.0032364339085410258
1139 -0.019010808590649273 0.018705245066125555 -0.004101130617293108
1864 0.0008869992555828306 -0.0032205589543583793 0.003546852458910839
1863 -0.0008928736467888181 -0.0007453608563287561 0.0037024368074183465
1132 -0.002533396682018142 -0.004899681826928482 -0.0016923112357946028
3744 0.008328875725090872 0.011918786852272758 0.029301656131490536
3738 0.005363881759289757 -0.0017717489716078088 -0.001986486444938008
3743 -0.005209291645482112 0.04081636312056511 -0.010952730629419134
3736 0.005710124590073976 0.004021928424555978 -0.0033401531542018126
3742 0.0032464723730177064 0.011209986567094099 -0.011144239071309124
3735 0.003608736423692638 0.0045965934795737 0.005296920063936704
3734 -0.0004463661189862101 -0.0004660767951697792 0.0022660609125274445
3739 -0.0007932289658785136 -0.0007613170507956715 0.026807118443053595
3733 0.00232294787346979 -0.0036128373861351246 -0.0037565374773358405
3740 -0.00679729379892679 0.01332659460033588 -0.017084478580872742
3737 0.0051850205532428485 -0.0014714049946460608 0.008013909671254966
3346 0.017223958407084235 0.013163758839316876 -0.005882832547814814
1140 0.008152755966346209 -0.018008429997308045 0.0006223236820199892
1131 -0.005558467036035708 -0.01012603983530414 -0.0020974525245523773
1134 -0.0025744645653215294 -0.004163784472031801 -0.0034050847173432
2673 0.00957812535423274 -0.005996573030657942 0.00999273485163207
2665 0.005762967546758164 -0.005134890412982947 0.0008821046192891465
2666 0.001038440215748806 -0.00030181128170055126 0.0037614130302327208
1871 -0.01581807944014912 0.030195240994119396 0.022675527613019646
698 -0.003962772225991347 -0.0019235338261210427 -0.004956452589563312
2671 -0.0043828592006216974 -0.005679429407500771 -0.012535734754435365
3670 0.022402117136802856 0.006013130304343838 -0.015080033387636173
1360 -0.003901435310515215 -0.0015068638041958867 -0.00829599169056896
3672 0.016710803296097806 -0.006380959814971997 0.0004286436765851266
1357 -0.00011294245117049309 0.000327817328169021 -0.0023405480825153943
1838 -0.0015190047538586457 0.0032635434468494978 0.0023488072387456487
3666 -0.00038788478588196065 0.0017594903564826082 0.015369123895336621
2672 -0.001663818218191476 -0.009244480865609622 -0.028809830507178995
1847 -0.0027215472641539907 0.0055567445544831735 0.019785531432861946
3665 -0.0002148171985655274 -0.010510082699126943 -0.002619276554868903
1840 -0.0015857857039933364 0.00899456558943856 -0.000852629483946007
3671 -0.005773208025928124 0.015361947582785074 -0.0013707240632181517
1367 0.00719036267747001 0.01808948744164652 0.00906771419210202
1366 0.007889565355250773 -0.011766742014405496 -0.027107120188301567
883 0.0009837800845254926 -0.028086918193107664 -0.001221842894722759
1839 -0.0017682694748950708 0.004897768964711001 -0.005099688079434226
1368 -0.0014866650243489567 0.0020085496770619908 -0.015119337190791442
1362 0.009761836846675092 -0.003393285155909132 0.0034145809324192603
1359 0.0006257578085872741 0.0034730532271117784 -0.006719524037488226
1361 -0.004943413964376551 0.003515803544165921 -0.006933929253271299
1358 0.0035971868449682803 0.003076418818836343 0.006696736587471623
1841 -0.006133269882775047 0.0031394818995591385 -0.001114316440596195
1842 -0.0017017618125678036 0.003137569395313427 0.004857213189788002
1846 -0.01149215196744053 0.020692185223620024 -0.007827890002334026
1363 -0.014214891102418442 0.0013663485056012174 -0.03077104155059678
1848 -0.008865296113197299 0.0023163012639035438 -0.014857988582394118
3663 0.00245090125184092 -0.001828233165514916 -0.002176840038745596
3692 -0.021769109435700956 -0.013107266639554877 -0.030128633196158997
3067 -0.0011504508210648779 0.001216580516983658 0.0076853989437762815
3061 -0.0004721850827334773 -0.004312533875942694 -0.0012017585643283879
2041 -0.0015956537529669198 -0.0031675802685971247 0.0037124842238742324
1882 -0.017249161159298823 0.017452830664408912 -0.02289772416477448
2048 -0.03878420573485659 0.012302391714596744 -0.00939855495548097
3072 0.002630344016867154 0.01767812614847831 0.010469502722819057
2047 -0.003032901287925352 -0.02129311912099874 0.019192225817981814
1879 0.001025625154320892 0.027374497891666766 0.0188195533283585
3071 0.0017797686491059885 -0.03236305811701505 -0.007686069729538004
1874 -0.0036407415152019352 -0.004313884242591427 0.004657067242346674
3128 -0.006401830105458103 -0.006772420714021301 0.02047790441856514
3127 -0.0019439310765436018 -0.010532556072743738 0.011948841448670637
3121 -0.0018358737421712843 0.005979151400689395 -0.0020238461788905523
2049 -0.004521974910170206 0.02132678797994667 0.028311596897833077
1883 -0.0005422709177560814 -0.00022133266897475076 0.0036111372884374835
1878 0.0028950195288318125 -0.0010096337308137533 -0.005292655153432509
3066 -0.0010570091118017948 -0.0063775984996444785 -0.009487640387714949
3063 0.005972115717712295 -0.0028396854565596943 0.0002843951444252595
1876 0.0040038840825517615 0.001049712721674979 -0.0027727842456505363
1875 0.00445900197695468 0.004600950358952601 0.0006002605514204653
3007 -0.005379332193835324 -0.003497871532108491 0.015297067842155742
3070 9.498688170952878e-05 0.008438771868100839 0.025991710038316875
3065 0.0055667567138103615 0.007063484220019388 0.0013404902092247965
3062 0.0005108663758608006 0.004064924647010764 0.0005796813934565991
1877 0.0022856874984811134 0.005256878495217882 -0.0031980553897747277
3064 0.0009237395952358909 0.00030980695414010675 0.0026204313687084916
1884 0.014559527435279725 0.012392557958986921 -0.025310652306255742
3129 0.01250589886323175 -0.005015094769694496 -0.028335229789082334
1178 0.00023657851195743937 0.007681990512377092 0.0027095611572553148
2444 0.009868016550443177 -0.008723716196245566 -0.01521881947213797
3628 0.004589040383411765 -0.0006636708862287048 0.0012446274933779254
1434 0.0072597907364614035 -0.00516275460806918 -0.0018623289149858908
1433 -0.00016135914851530953 0.0028282094813805248 -0.00922957065188082
1674 -0.004292123510657642 -0.004113373874205102 -0.011112729570535473
1438 0.0025283752972126796 0.011902812004141358 -0.012644034567071635
2439 0.0013221022802817398 0.008003803693737854 0.004149183448736515
1673 0.004032394958129616 0.0061278820352504365 0.0050199321122256476
2445 -0.0239651835319351 -0.020726742339783884 -0.0015572265190568816
1671 -0.0020798288992578432 -0.0018453553967376533 0.0034250129619643626
1456 -0.0016867092140441641 -0.0032273613376551874 6.728400754029193e-06
1439 -0.022183305981625018 -0.025242615346119265 0.026085955791506264
3635 0.0034306556158873714 0.01569815110698248 0.03525633895132325
2438 -0.0006548600989749205 0.005383988482054171 -0.003907949940680776
1440 -0.020779767073896022 0.009743098361986592 -0.026187924511839232
2437 0.005703701613708337 0.015075375050165372 0.002504530913910296
1431 0.007018108539674312 0.0016578784815799276 -0.004575275532832192
2443 0.022087984176978426 0.004700009211185372 -0.004330369661871372
1679 -0.005497980193360762 -0.006203565113708951 0.00562319498227576
1680 0.01639790583328386 0.024172366556314093 -0.02695250886100653
1678 0.005255460115754388 -0.010124991888342453 0.03194532987873517
1462 -0.02570125488024392 -0.008525160762152923 7.187163467977875e-05
2468 0.001430214450929963 -0.030837061956778867 0.0023980105962853092
1672 -0.00686863859664466 0.0023393773374704215 -0.0002962715504432344
1463 -0.01987709578732567 0.018388269229967474 0.018251704385507102
103 0.0007298458346758911 0.010823582871518451 -0.002227577378830692
1458 0.0028728504020262002 -0.001798188619656608 0.0017299932361465322
2461 0.0036127605230571345 -0.0005242680834201584 0.0009976162013671972
1425 -0.029393260566643292 0.013329496826159587 0.01800819754836456
1424 0.012444754484858505 0.01988902394968556 0.0027062945941263242
2467 0.0014153782491975596 0.006729515388767901 0.02518922697213303
1400 0.00548230840524084 -0.0043198398847644915 -0.008484306933251744
2323 0.01246240042098558 -0.019196612410696978 0.006486857900592957
2325 -0.012258707168204333 -0.022588598859348993 -0.009066334395967235
2317 -0.006306971214358423 0.004899457169685683 0.0007231465225836115
2324 -0.0014364508663871941 -0.03896144077297618 -0.006805038842408045
2318 0.0016081873609102644 -0.0025982773988843582 -0.00025815025013375964
2441 -0.004533614109431757 -0.0002499879934085862 0.0004046855755648377
2319 -0.0017835365942829474 -0.002394610175978884 0.001205010707079745
2442 0.0037380678542282063 0.0005479246534880354 0.006416541823136159
2321 -0.000279825062356962 -0.0044499356928613286 0.005322750790532539
2447 -0.01526982855182277 -0.030879330790911742 0.02595837433921458
2320 -0.004516331641822059 -0.00039823336566874963 0.0006038116516315023
1417 -0.0004179667009986119 -0.0017717318502727523 0.0034235063220731713
1620 -0.008151515853441479 0.01265543451189018 -0.003392556012471689
194 0.003381960161339105 -0.0006433111961301655 0.0015323580572992222
193 -0.0007372742013369691 0.0025574085627069246 -0.0003763358610467451
1619 -0.00660143338602128 0.010853322280839569 0.004952212675656393
1686 -0.0002674946532376148 -0.001158762416180996 0.005513880046152
1691 -5.723897988038207e-05 0.014733328348144762 -0.017023528156605863
2448 -0.015786853297874853 -0.02137817957331485 0.030267211581786017
201 -0.0055065416013604295 -0.013604416979258375 0.001492931062431097
2469 -0.005770310272693306 -0.0018828131165710344 0.011531289838422026
2462 -0.005499844636625321 0.0026924015915077994 -0.004792052443152114
200 0.003690242724320495 0.03207161378612948 -0.0042263904120255465
2471 -0.005582837118688058 -0.0037610063353687322 -0.012643931989704243
2464 -0.002999499291024727 0.0007907464144000557 0.0022532548708734702
2463 0.009387744637981412 0.001090463188146789 0.0008998531427190537
1423 -0.02478651903338271 -0.0006381462932743224 0.019913508072071873
199 -0.016533518372441314 0.017831498212799866 0.020986339989923886
1418 -0.001254888851384979 -0.002358669037055207 -0.0004798440070641997
1419 -0.0016337525164379202 -0.0010422449246640653 -0.0036402838074535092
1426 -0.006377951404473839 0.009373283651064828 0.017700176507310348
2668 0.0008184742670331867 0.0016389276218488082 -0.005352727656989383
2676 -0.023283994353408954 -0.016799658290034134 0.01190408201654581
195 0.0011457201744860988 0.0019715112180991668 0.0025210359842680113
1422 0.0007130929690314187 0.0030012474047920747 0.0010590544459152841
1427 0.015955739060341683 0.0009194935365817567 0.029588418790227486
1428 -0.015293523399616963 -0.021986930739633988 -0.03270245865459199
2102 0.002075725628470107 -0.002347690178168389 -0.006074097029219849
2667 0.000806074772410704 0.0016869196551101667 0.0012120459674024235
1420 -0.003029094930319276 0.00011770868990830565 0.0005576916891543854
1421 -0.0005614242259908436 -0.005462675588083314 0.0025990996533860715
3717 -0.01587587616768281 0.007169514596202351 0.00758695252853927
3709 -0.007190245572176633 0.0021701371263112713 0.0008977699046181847
1136 -0.0006478489276529055 0.011087966046592818 -0.01651790396458095
1135 0.021636395055573705 0.018923686716349575 -0.03233937565593807
196 -0.007990028408648472 -0.0013973559955205537 0.003819281027161961
2722 -0.0073387399418532945 -0.026401754530168083 0.015222820717208983
2669 0.0012184791301643064 0.0032557658374615405 0.00098869598383961
47 -0.010019784891787125 0.02103512311679224 0.001491157937992897
48 -0.000911044250416168 -0.0010808921195611663 0.012059848905014652
42 0.008101528803609724 -0.003300102136935625 0.0025782081797975573
2101 -0.001885933407691296 0.007879497651457634 -0.003589688459328825
697 -0.003825004611753627 -0.0023015036012424567 -0.0014057710776150972
705 -0.002189058689268926 0.003658642232742074 0.0005165076247513602
2108 -0.0013246186108443329 0.028970383702233378 -0.0016905892523986104
40 -0.003113296987818526 0.0015939717453356476 -0.005352941114321512
2723 -0.006183687100922162 0.01196159989497746 -0.037724914846450554
2718 0.006833890353420989 -0.0012278140207685755 -0.004833517296792076
3715 -0.011524132534666234 -0.00604804933287394 -0.04290025247525487
2107 -0.017923941673504824 0.006032193637586931 -0.0070910013405033855
1844 0.001167227584307189 0.018235993995469935 -0.003118746924979693
1837 0.004769558863009044 0.002205878392010416 -0.008355098133773768
3731 -0.014631016263252382 0.013578581968093419 0.0024247767446039853
212 -0.015517798686991786 0.015579009137165782 -0.0013919590743551053
45 0.000422396443873957 0.005820880409628759 -0.004425555212197526
1845 0.01108027406847515 0.024722534497858835 0.009639557680896355
208 0.002587575018485013 0.001679840996924694 0.004481428089995412
205 -0.003043860754196485 0.001152091021976315 -0.005509011731937926
216 -0.0007538486437323743 -0.028716586451463598 0.01643291126020468
207 0.0033876097794869513 0.003386616920079514 -0.007346098815121618
3664 -0.0024816847525729185 -0.0033795617578366082 -0.0021220872183422383
210 0.0008107574179221703 -0.002150019578119866 -0.0016611173282632076
214 0.011770586528578169 -0.029810041346576055 -0.0020556399003397703
206 -0.0061801897199265385 -0.008537692257081455 0.002862689687687962
43 -0.0019597757258407 0.023649850484804665 -0.011930668766987673
3661 -0.0034817301321245606 -0.004595868748989231 0.0035456163515197054
3667 0.004630194983562257 -0.002880625339288424 -0.012988585903286411
3668 0.003150107109393631 -0.0017904865726605158 0.014743118612519115
39 -0.0023135335070435486 0.0019939411914111434 -0.006971373910850682
547 0.018399084792505814 -0.007169400903798738 -0.013063336731493291
541 -0.006546882765474428 -0.004331702048995613 -0.0031401813654896075
549 -0.014534391408837282 0.0049447689701366095 0.0012527633452974769
209 0.002876219142771729 0.004115394824203605 -0.0003287265045490525
37 0.005244806146860911 -0.0026382630744689545 0.0007486956315127821
38 0.0022780229537020386 7.924664963918391e-05 -0.0016764201996123033
46 -0.002615294297088489 0.003869812680873035 0.008929881620715422
41 -0.0036260404209978556 0.0006246805206656685 0.00427685551007517
215 -0.012446813304031102 -0.004053130055071744 -0.01709870938972819
3824 0.002337846441463649 0.019636385803554725 -0.027410216392294476
211 0.02093058938143503 0.002091475647581324 -0.014964318884441375
3669 0.01192594379282287 0.0027564056190079894 0.007776145914193656
3662 -0.004789101213328033 0.0009995163746348568 0.0035764883668237
2087 0.0029906238633714065 -0.014233271005573384 0.0025824524208468325
2086 -0.00027578165208467945 -0.01197583429286798 0.03628462865626075
97 -0.0016951214837580622 0.002694981432860355 0.0010766954955213658
550 0.011828154395225946 -0.021428014802126298 0.022539949823988575
2083 -0.011346280574592877 0.024183365833413316 0.013477773586362244
2077 -0.001530038762621453 0.0006763736431337913 0.000493922842148109
2078 -0.0062051843640046345 0.004838105541682288 0.003906998807691575
2080 -0.002064734790591194 0.002982722576957978 -0.001622257807302542
106 0.015635324974699407 -0.026460430020594006 -0.021871692757301053
108 0.003934986027539324 -0.012651191741774866 0.0066142299065264434
102 0.008502989660551784 -0.0035714232539218686 0.0048441407735223445
107 -0.00322885337349331 -0.008399081632472785 4.6653152003732005e-07
3008 -0.0028809188199083557 -0.0077173449473330194 0.01599088139347466
542 -0.0024511352905984335 -0.00513618025066165 0.003272867446213013
543 -0.0009594870802546534 -0.0005800839647230826 -0.0001575280518347931
544 -0.003800202833458928 -0.003258260532111398 0.0008736907462953696
100 0.004205592991894785 -0.0001611150454885323 0.002639140286830038
548 -0.0009626927245058351 -0.03872296898014119 0.020577461201112236
3723 0.0032587012770896994 0.0012485390949976247 0.0007119740197784258
3727 0.011181016016710761 -0.0311790437193408 -0.01419798167636609
3721 0.0053616728550336815 -0.0061502066227862385 5.65726290745946e-05
546 0.000548384306150646 0.0024297240288337647 -0.0011463740659928658
2082 0.00263976957718128 0.002066171246459562 -0.0016145091403220763
2081 0.003164134547380818 0.002776333279400027 0.003784501971367638
3633 0.0022856633992852085 0.025601857927298015 0.0008760619107187558
552 -0.03152245832141736 0.0030096095764823912 -0.008676328224218198
3729 0.003317224113383202 -0.008893499304890792 0.020961044671315338
551 -0.01303814406846909 0.00471414013585314 -0.025134218838046733
3722 0.0017942539199535398 0.0029182611510407686 -0.0019559276013169885
3725 0.0016209549303857977 -0.0017270646286062553 0.0009449291604499758
99 0.007509999660641608 0.005813910044928151 -0.002959172151063427
98 0.003622849592337546 0.002938632757878995 0.006218722126501942
105 -0.007251780953170889 0.019971252186157157 0.04089981575098671
3724 -0.0006791937321688161 -0.0012707907926914847 0.0024078656901966628
101 -0.0023707755700604688 0.002785604894753876 0.0011727690005076132
2079 -0.002737751301344468 -0.001621788256361017 -0.0031529135700007417
545 0.0029794618861525993 0.005305069216083717 0.004713470619269522
3636 -0.014138612863379025 0.010925625205819136 0.0038857153845979313
2947 -0.01501675652459415 0.01929699487282548 0.020510963073767062
2946 0.0024854849433427724 -0.0030383358810441843 -0.0008559305389706761
2951 0.006164062212121121 -0.026234601186676164 -0.00490133448597923
3627 -0.00030836527715214645 0.007998443498707913 0.004755682978513663
3629 0.005057070192676705 0.00014373220750989597 -0.004696706772526262
3626 0.00037738658520062413 -0.0072635491995673394 0.0011181164774963376
1706 -0.0010023961347447618 -0.0013060759183062447 0.004319004909392698
2952 -0.005139560527542012 0.025899863870475808 -0.011988159023924505
1709 -0.001237591134181185 -0.001970482542284534 0.006237018659983848
2943 -0.0008949677664906428 0.002884644639847485 -0.00651767632759509
1714 -0.012048435241031392 -0.008205804219104407 -0.010645741268110052
3634 -0.015008956957034148 -0.017377072826537672 -0.01975304870354962
1490 0.004186027070261644 -0.0013697592549842574 -0.0007625724761057569
2950 -0.002198433288652197 0.013775129283602383 -0.00011112119640143917
1495 0.008629916653083205 0.005812879670892748 0.003375854004152239
1496 -0.00906044178445922 -0.005710022557673534 -0.007205729473462843
1489 0.006674576448534939 0.001896737594223052 -0.009425540727426962
3630 -0.009298359715491181 -0.000184707828081262 0.0011226495044281862
1677 0.00147375187779625 -0.007097723043996105 -0.0188882303158186
2230 0.015078896648694976 -0.007870442607297476 0.020067636811222953
1707 -0.0038092304303523057 -0.015592358153115705 -0.00020759558575406033
1716 -0.028889809379205638 -0.018978042768650002 -0.007627153632389787
1708 -0.0025348852050015402 -0.0017364884613343626 0.002865239851073012
1710 0.003400868658320906 0.006404924241443298 0.00541893250266552
1715 0.011765665441100685 -0.0029561607757332894 -3.7230677543072753e-06
1497 -0.01909415984576681 -0.0036232058384692606 0.03372582718652148
2229 0.00016872551717267854 -0.008830540557730554 0.021043833876245407
2944 0.008378558459070236 -0.0054129654141216775 0.009564826461309366
2227 0.005272999030477165 0.029494808167278508 0.0033415019206356573
2221 -0.0015090383079597162 -0.002985125905410823 -0.0036439376401011876
2223 0.005626570437903517 0.004065397270722131 0.0004949553867551539
2222 0.0029021298059973546 -0.0022111220644034325 -0.003763538466880787
2949 0.0009045205091046997 -0.016371974566664237 -0.0024352522501292356
2941 -0.0004455446537012873 -0.003939081756843284 -0.0019404371152492803
2948 -0.0017235067530831862 0.008309412002803565 0.0025659508916797955
2945 -0.007717265354034794 -0.0018952422735837762 0.0016045833293947753
2942 -1.3095079537339186e-05 -0.0005522255358045829 -0.0099525973044236
2226 -0.00763526619305454 0.0024303535480934535 -0.0001284381284243106
3246 0.0008664436543429302 -0.004309104581551792 -0.004278788350034536
2232 0.013067992332453612 0.002725784689944109 0.012474354416053676
2326 -0.004924398978291811 0.00588402106235249 0.008653322931605293
3251 0.005184103949011977 0.02767082808985018 -0.002323464442919841
2327 0.03044905769243774 -0.005956369440350123 0.02088082596146341
2322 -0.0015588629791705162 0.001454363099827984 -0.0009331316862101319
2713 -0.005138160481621728 0.0016473116832131237 -0.0014339696547342926
2719 0.00097170606738148 -0.018476730289923807 0.00021395397941551637
2328 0.016616316173015018 -0.0005983939114885631 -0.007853729897547143
3250 -0.006995557461705534 0.014873546405128571 -0.005843639104686554
1531 0.009313147317811549 -0.04082698884294548 0.0020928476296971387
1528 -0.0013429399899028743 0.002620961270957018 -0.004794834019913962
2225 0.006206501165752333 0.003838073836886065 -0.0011911180462304896
1527 0.004840154679093973 0.00340623013502896 -0.011011882513624444
1525 -0.005236729723437448 0.003462248668060329 -0.0020444100730826263
1526 -0.005742513455203241 -0.0032685857650072226 -0.006203342039932525
1532 -0.024367059719747723 -0.00625172103975303 0.02041068723724316
1533 0.022972013501475957 -0.011164977774596815 0.0314771494513356
1529 0.0028123975553088457 0.002628536428503295 -0.0003182071267908221
1530 0.0012076430237846854 0.009210195905414368 0.00021217132552913814
1536 -0.007347313217896352 0.0126973220269856 -0.004015509715902399
197 -0.003960760913479337 0.0013976257477427434 0.0029363194023480418
1534 0.030614861927822538 -0.014871020294496539 0.014895331829238424
2714 -0.004610276761152814 0.0035018231466746046 -0.0007006057079545342
416 0.005021266479641629 -0.0074281872103474185 0.023536093152232776
411 0.0011817782714342467 -0.0035293291351021633 -0.004622828986408083
2104 0.00024164029149670793 -0.0030626127850432714 -0.004749426888426012
2716 -0.0024820552668832338 -0.0036483774978883915 -0.0012840399497055718
1835 -0.0010695257682683226 0.0032882377073544734 -0.031033444342473324
2103 -0.00035186411542812996 -0.005768996948690325 0.004507991572907612
2109 0.008788966303199192 0.0058367348620157545 0.003036256816538424
1535 -0.010095597624832314 0.013771608364734393 0.009679600176238826
2717 0.0007424697312375322 0.0011225554496028711 -0.0018335616111824484
2724 0.007089048280554686 -0.001878053666273994 0.0017776720957970993
2715 -0.0007363773808152104 0.006387796643047017 -0.0005679334031996159
204 -0.017997346171685965 0.014989472930847719 0.02333196243737339
787 0.03010932131826162 -0.005315226387230474 -0.01643166638804422
203 0.029429356586831063 0.010923205542124413 -0.0030936698095922308
198 -0.001188662839436796 -0.006234313149195166 -0.0033025974009340585
455 -0.013433394994709406 -0.01076703079414031 0.003253748752347036
783 -0.0057968500351648225 0.0019064057803449767 0.005614268088721274
782 0.0036189005247845582 0.00043822394303310734 -0.0049254439135849246
786 -0.0024863937427364578 0.0022826103762561656 0.00016356082750593084
781 -0.0011105279739530864 -0.012035148511166504 0.010397721153853106
412 0.0020767132667131954 0.005660493181768049 0.001914152991286267
202 -0.011760330999458954 -0.02633525592050592 0.010592251353397782
409 0.006824429715999893 0.0003541156262877188 -0.00010479912822521754
785 -0.002101765598097237 -0.0015410489809946442 -0.005699359304025862
415 -0.015220815463471699 0.008847356982401373 0.006728624294480877
792 0.0019489427846499242 0.008555269425395131 -0.000780503579401156
790 0.010384640763020135 -0.007272435468243317 -0.0036104812663925252
784 -0.007085319094055806 0.003414751283600114 -0.001972460033621286
791 -0.0028102048432061193 -0.005407013245661445 -0.016522153309966474
3787 0.010026141627009927 -0.015870289711663765 0.013233415031706825
3781 -0.0003686255814256923 0.0004992517562467087 0.004190568369604444
1818 0.005843834211278029 -0.010664193884227475 -0.0019601913242388957
1822 -0.008104809803723408 -0.00650439523280075 0.02297155662362108
3115 0.015890687181960923 0.005654670604730867 0.026704807856074573
788 -0.009584350890351907 0.0038050244665945765 0.011240781681659803
1911 0.0026369697824502 0.003137848130784714 0.0038432430422249936
1916 0.0014793292528928852 0.00216093931799991 -0.0016038358664982638
2742 0.0033310438479448997 0.0022526105945992357 0.008127290966839725
2746 0.0065674908638577705 -0.022790730871469253 -0.026697826593906536
1910 0.0019712131647642624 -0.003553834672923738 -0.0006693140372622468
1909 -0.0015613694702063011 -0.004519765411648641 0.003225859092974429
2740 -0.0019839711513004506 0.004965062057843891 0.004247209908596648
2738 -0.0002489279518716419 0.0001663779339112368 -0.0023773468351493843
2741 0.006929726477824761 -0.00900960469637714 -0.0007481404236960172
2739 0.006015583621805234 0.00021447760809339438 -0.006380414647082295
3792 0.007850121583146899 -0.020108891402203493 0.0029496066382139886
3117 0.024096114440154914 0.006589420357166642 0.01316937257999991
213 0.0062532965083408965 0.01950584374631745 0.01288300985736559
1920 0.0120342178840996 0.0034868923599737497 0.01631766970694596
789 -0.007578569492303444 -0.016886382103564423 -0.009209736579014824
3788 0.001395632637736168 0.026242065505588996 -0.0015853687468382542
3786 -0.00035932324778616885 -0.010027261575021967 -0.0005285787027439938
1913 0.002866542994572542 0.001646488947067786 0.007166494175182103
2748 -0.0015561017013673469 -0.018651676638770858 0.003192085408281921
1824 0.005190156985000195 -0.0005527603559283274 0.0029286340328827393
2747 -0.0192743436143942 0.0013723407973453598 -0.004078629735341301
3785 -0.0026284432990367804 -0.006276911508430831 -0.0007432298878780032
3783 0.0009687251754374459 0.0028085871498074177 -0.00453243455412134
1912 -0.004396768034694568 0.0006079407862463049 -0.0003554799952453902
1917 -0.002871833117101954 0.00683348720007388 -5.00190139378904e-05
1918 0.01238783524128677 -0.0022069203790759757 -0.024961310233620724
1915 -0.039656378634421424 0.007223255725920164 -0.010495185463195396
1914 0.0029770101066327924 0.0044980155858482225 -0.004088481571731372
3782 0.0037645423317817163 0.00021475556365540356 -0.0009876538297748155
1919 -0.0027644228181905868 -0.020166266986348977 -0.004244855194152254
2743 -0.0034726998901619724 0.02466160775891713 0.022054151765218157
3261 -0.0016041673335561127 0.00955061693183959 -0.008002709996997962
3254 -0.0024216909400551013 -0.0006495369323506681 0.0004156496534619753
2684 -0.008951919444889154 -0.013450584665371043 0.021497373478046422
2685 0.026752452396463015 -0.006793962650107389 -0.0016555707108065053
2683 0.0036468667267344312 0.03285090965936968 -0.0063675877500799375
3256 0.005190829345371499 0.007321134673708344 -0.0008846146540918065
2677 0.0037429996220211966 -0.002232623859375655 -0.0063648030761568695
2678 0.004370123628968029 0.0023827716701501885 -0.0009548829308186145
3255 0.0007680036158867953 0.008831954354791486 0.0028448184333599094
2421 0.009354114744839364 -0.006603858502333103 -0.01929283339604122
2679 -0.0011547137152582493 -0.0015710114241710578 0.00025607882416064053
257 0.002148510519494975 0.001385686643108413 0.0023244779721390873
2414 0.0009379739640700212 0.006408624157603086 0.0004833215214949728
2088 0.015721110869387107 -0.02063564254617993 0.00151548454270312
2680 -0.0012283066256772407 -0.0008082737839916576 0.005961613926419671
2681 0.004251616737866031 -0.0017506331443226336 0.000739178536758154
2419 0.008812624487891708 -0.006981886900014355 -0.014161644889030649
3631 -0.01100600680341207 -0.015317995841361034 -0.013414683673715587
3625 0.004353832079786027 -0.004064770109021378 0.006162026113306952
264 -0.014663681852711887 -0.003754351774175938 -0.02929050137075324
3632 -0.011622107485363855 -0.0291988125517486 0.01021667920293407
2737 -0.004453021414689436 -0.00357252242339257 0.0004975515128745672
3253 0.0014124481223355399 -0.0035555658874219364 0.00726765292102684
2745 0.006828534902295462 -0.010893298505048735 -0.015097361781816405
3260 -0.0009336640731980193 0.01798393823694938 0.019655433940727877
3259 0.02222475646537003 -0.006571172751646429 -0.024257542594678255
1705 -0.0013894745010836443 -0.00160322388705852 -0.005639241702556354
1711 -0.0031805192956704466 -0.004377261165847055 -0.01247013196160108
2186 -0.0003308784658659964 0.009644858349211027 -0.0002562397998765026
1713 -0.0038648712739020223 -0.004147861668690787 -0.007824990991446784
1702 0.01733155251881231 0.013552903180034093 -0.02727275558419709
1697 0.0018315807254158302 0.005441252526121609 -0.0009455515298842333
2632 0.001893560025349613 -0.0016303102544127077 0.001962602805877356
1704 0.008695801958063463 0.039314822008718386 -0.009647997211631378
2599 -0.016235891274535664 -0.020066791343455844 -0.007492826007916053
1698 -0.0001395916730576341 -0.0016061938481241273 -0.002871043813721941
1703 -0.031824074890567614 -0.023869443248312434 -0.0009112300640744987
2633 -0.01330573940308115 -0.004191545631964498 -0.0031265532424292397
2630 -0.002610394855381397 -0.004395165919640056 -0.0014921191697193847
1696 0.004179398652360209 -0.006321957028965303 0.0014068026345825711
2631 -0.000572795801455128 0.012144212273408096 -0.0006102109992740557
2635 -0.03536239482513943 0.007898508764005711 0.008302768877409439
2629 0.0009631264155021754 0.008103292186073101 -0.0005891256285576778
2192 0.018242653749885412 0.00029086523088759736 0.008574345118519485
2193 -0.0016857306244941626 -0.017817504679346403 -0.004544129477366221
3396 -0.0077631440295581645 0.016327487414121385 -0.015970196159689136
3395 0.04378560076196117 0.007036321970013895 0.0067832842219882625
2638 -0.010376769825692233 0.0046187837303824095 -0.013144174971094779
2185 0.004885031865851858 -0.0013806481657611146 -0.00938213038004128
3394 -0.013507581079098368 0.009277587852841771 0.004815704380131656
2191 -0.028910528313202243 0.0031934769223404564 -0.0025570826539623023
259 0.004498543991095355 -0.004693255120570206 -0.008051636732339372
3187 0.023082843987146922 -0.005096348183180566 -0.04097066895423588
3189 0.023491700684406782 0.010715524442500872 0.03728157331999898
1695 -0.001497999886882536 0.008522969387997724 -0.00472983066626
2368 -0.003803577705994049 -0.0010198864495921459 -0.005773421872065843
3188 0.021010457421474137 -0.005338698640511514 0.016925024467763873
3181 -0.0084125568465146 -0.0017518957223012905 -0.0014204457355532622
3182 0.0017344357859290127 0.002152026022344034 0.007302648632660055
3184 0.005670967643500328 0.0007319876319921709 0.00442746143700297
2636 -0.0031245190758950317 -0.020387339493199586 -0.019873239347336733
2372 0.004938615724081011 0.014845500367489193 -0.033473858301526535
408 0.009973443155899929 -0.012296845022035067 0.007779020833157476
1934 -0.0023059637991610323 -0.0016601578742953724 -0.0001493788953976115
2366 3.0340477910740104e-05 0.011966510868044134 -0.007307512141857021
3191 -0.004425124871122963 -0.015463898859081577 0.019653254346504594
3190 0.014021962468952933 -0.0071753996678291234 -0.001597312018284242
2367 0.0010725581008258936 -0.002044086653774523 -0.0032128279861627536
3242 -0.0015171172048464548 0.0013381934866215815 -0.0035954959017309427
3243 0.0007729879906834072 0.005518973897773657 -0.0013883645218278275
3245 -0.0012275397589444441 0.002288551260780044 0.0017943563939289912
3252 -0.013267232989837056 0.013279972282324007 0.0032647344858896875
1941 -0.022674486898752476 -0.005787467245287456 0.02048784620259005
1940 -0.011342861026094442 0.007044868351313123 -0.00453869398960019
1935 -0.00600288506809738 -0.003428754277116292 -0.0013584072293647252
3183 0.005951624565721612 0.0012390117983333848 0.003280576669378509
3192 -0.0033386291388245257 -0.0072275184168153535 -0.018249789540965226
1933 -0.007712168743163784 -0.006363518002058045 0.004097326556514316
3359 0.020646628482529527 -0.009391690821137949 0.013782253202422535
3350 -0.005329370495163967 -0.006021390476703728 0.003033056265432994
3186 -0.003922335233278504 -0.0054241575531091095 0.00446420080854644
3351 -0.003909260813549325 0.0010711621604548248 -0.0045914952779896575
3352 0.00285458824962564 0.0011608650085150227 -0.000551740862739201
3353 -0.00037853340136371686 -0.001506557196690272 0.011640374603460232
3360 -0.022938157496740563 0.006037353498552293 -0.01426231456818494
3354 -0.001756735200053621 -0.004407447600973701 0.003883625118893267
420 -0.005573412992816671 0.02796324159294481 0.027552960768349413
3185 0.004475230757710498 0.0008742701293164312 0.0026135635190118025
1939 0.026477774661252302 0.014543428569229643 0.0358091836815039
3358 0.009339799901870874 0.001758528553713702 -0.010516500020703883
2365 -0.0010150831695373223 -0.000716645776595163 -0.007120722520206942
153 0.004169010290943463 0.0189019895363079 0.0006950825557720651
3349 0.000179581434190557 -0.014136564362421923 0.008690104481082733
3355 0.020600102025037866 0.012111492617303977 0.03767753426528507
2966 -0.003323614123787302 -0.002339341829894792 -0.014499307180138242
57 -0.02635028374865812 0.01696321553925757 0.007865095912662963
2660 -0.0247049459385746 0.007636902846206275 0.01251672563947278
2653 0.0014275739678586924 0.0007540095776129068 0.0013724516037172097
2975 0.004156870436753674 -0.014407800468973818 -0.00416398296367372
55 -0.003100971646171954 -0.003952656764177571 0.021117956279173927
2969 -0.0047178309601383145 -0.004568701416925257 -0.002519384682046808
417 0.0030941459547811647 0.008158015852215695 0.013963668688690591
49 -0.00118302942098355 0.00338567601444912 0.002736018845178019
2973 0.018421957471747786 0.026178307920139653 -0.029834122888345437
446 -0.0028272115092892124 -0.004697169031530983 0.0014235829617846708
2965 -0.008990414933376873 0.0013178420670261154 0.002026645197938254
410 0.010119964697910946 -0.0019849548873615997 0.0018702219013264662
2968 0.0009507040790512686 0.006344567121814622 -0.005891923939275714
449 -0.00028171016932650015 -0.002619944278843511 -0.0011675703462175938
453 -0.013753671325490987 0.022307832756244626 -0.028499246677269417
454 0.02182784738411622 -0.00850498564658239 0.011335025023717978
450 0.005118688829947878 0.0018242464599038184 2.2996795217186518e-05
2970 0.006598028099144041 0.003472514382642581 0.004210454053137009
2974 -0.0037513079516646457 -0.023051317838756965 -0.00815980623514421
2976 0.026447298163421125 -0.02555602871928702 -0.01854159396060618
451 0.013919850594721079 -0.027441114304142006 0.03536268452455133
445 0.001294293595704081 -0.0037574353331900835 -0.005458597992784129
452 0.0021896749440712183 -0.026255638161818626 0.016058413209310316
447 -0.0033672881050100184 0.005638184851007119 0.0013011500823287988
413 0.000749901560284656 0.00010014688764742677 0.0004839803919818283
2967 -0.00602338962854341 0.005739306558769537 -0.006535543309674503
2971 0.002847752739121409 -0.021526263983434643 0.01191687341325853
456 -0.009440798443629994 -0.015358887027032656 0.005200223091345799
3789 -0.0007653971008646307 -0.0019459773874979916 0.024339507198906558
2474 -0.007148232310355019 0.0029045706403760083 0.008614608854602948
1253 0.00042698137052137676 0.002817717624864632 0.005816748792169855
1259 0.011577529237150752 -0.002522832987995046 -0.008714263426064984
2654 0.001455620343084331 0.00738435797181355 0.0023222917486827198
319 0.012321580424875465 0.032690510771808554 -0.017920967212564837
321 0.003672364175841599 -0.0002800589622541419 0.018381532619490763
3641 -0.001530388310646978 -0.0005439903747656896 -0.005176322119527102
3648 -0.03282569823810653 -0.012956178040361326 0.015117829109779388
3639 0.008701002170197232 -0.0026103165755959282 -0.001966365083606301
1725 -0.001855445656982631 0.008542139163257122 -0.004696160430585983
3642 0.005175382608977942 0.0008387380771026329 -0.0005186413926290538
1254 -0.001324726160639471 -0.005920065354844873 -0.005616227322859315
3646 9.296691088463716e-05 -0.012299296273223863 -0.02560905508810453
1260 0.012329826067096464 -0.006021951838567646 -0.02463092499176265
1717 0.011886149299508812 0.006612571628313624 0.0015805331394257993
2477 -0.002993049136102925 -0.0059733679565597345 0.0034689677480641942
1258 0.02070335533968339 0.0013971668355404199 0.02091225443502246
3647 -0.008977350969530002 -0.0023510561635758827 0.025366444749583005
1723 -0.01405326895470746 -0.006704639105574157 0.010512529401419505
320 -0.004783371918187995 -0.005756026977117153 0.01770421967631011
3640 0.0006727347785625316 0.0046276338086224285 -0.00026310412575805025
1724 0.011064549729349771 0.015988741987407042 0.010934223054617801
315 -0.0015836158567757387 -0.0005198991565863179 0.012589137812884454
313 -0.004275881362672079 -0.006465237722520777 0.0009845887620338308
317 0.003628962331698109 0.0038850828019774773 -0.003020259464823906
1075 -0.0011304480642121185 0.01637409786642296 0.031055578865910292
314 -0.000620476143112802 0.002713425724999714 -0.00497756172799495
316 0.0057085315204268156 -0.008435147164347392 0.002052327165854584
1251 0.00839266723477333 -0.005794509693104996 0.004080984732200726
3784 0.00545781540850104 -0.001992818772726264 -0.002508858363403758
3791 0.007797816303595484 0.021197184668852554 -0.0017288970963265126
1252 0.004040356646950882 -0.004383488348017129 -0.005897643247613344
324 0.001649045768672377 0.0006808519926233894 -3.7988446736486836e-05
2479 0.023447935189078693 0.02378515152949943 0.0016057788087177546
2473 0.0024280110045066445 0.002098201961352386 -0.0077082536008046655
2413 0.0014802648503981215 -0.0014352907628526754 0.0011357436331239231
1712 0.014707568117597438 -0.03943316254810635 0.011819059751362522
1317 0.0015613552518480157 0.016763262357300347 -0.029760249538044316
2420 0.036545652563368926 -0.010464502499448374 -0.011892850052030448
318 0.002110616428648971 0.013541472214172269 -0.006787500578211667
2634 0.0017422658776480699 -0.001653895352408986 -0.0006241873014397034
2415 -0.0063136859003943896 0.0006569855737106566 -0.0060307009305549195
322 0.008972248105259614 -0.0037653557221683977 -0.009363052931787323
323 -0.008471633249263574 -0.036016968435405916 -0.0027906694437277234
2593 -0.0061705845833159734 0.0011328327214152262 0.0031002231644463923
2600 0.03533909441392392 0.024057148773706565 0.015407439371906148
2640 -0.033186024687786225 0.016157111716884075 -0.01720475724240634
2416 0.0013475922318919899 -0.0007049412380403322 0.009114602886444835
2639 0.003680325700860984 0.019287840921591855 -0.021919735872183325
254 -0.009300455418947836 -0.0046865016219727945 -0.011342629539776296
2417 -0.0001687142093490382 0.0035681313155500583 0.0002025152975087442
112 -0.0030451324031305015 0.0013916970858638927 -0.002136609786044566
1310 -0.0014243772884687095 0.0030230236322338526 0.0059722898672489024
114 -6.183260923395444e-05 -0.0070101893549549 0.000974464850172287
2424 0.003126777871344221 -0.03884499672827284 0.0244841335878836
120 0.009090588175001 0.03666179590697981 0.005981328927401222
119 -0.01726276323110307 -0.03579831963030484 0.004895024637020067
113 -0.0038524816798769334 -0.005542382996707093 0.0005163521352892054
118 0.0150436880530413 0.01770792900172206 0.0015769641535808916
2542 0.018501424544338698 0.028441962689571772 -0.008203524073143268
2544 0.02186102583647368 -0.005559620483057148 0.004228873851987542
2543 -0.003243015954431532 0.006368318701669644 -0.0025224474905726543
2538 0.006885300493103494 0.0034233269157113166 -0.0009792702779978667
2537 0.0006179903383473238 -0.0023466124498734415 0.00011790316674707471
2536 -0.006029138489750417 0.001986817655753858 -0.0011574372086338768
1320 -0.016018556417490927 0.03954010134851533 0.004925108864327904
3047 -0.003216235071162818 -0.018626089026135793 0.012915484686250011
2601 0.00717279363333686 -0.005360979220957032 0.005580637317313786
2880 -0.0005674283729966262 0.008931526640072915 0.006592374005182781
1318 0.01833814848659548 0.010700733891404357 0.014700811335227363
3688 0.002196507126927453 -0.004054007258640284 0.004472043691404684
3694 0.005761299914044116 -0.0028372101081423815 0.029744387791378907
3502 0.024367056322100043 0.011816660797160566 -0.0195348136952014
3696 -0.034081894621697965 -0.010143522296363448 0.017520301586317254
3046 -0.00985298279209668 0.00584072658530857 -0.001032922023408783
3690 -0.004377693578238562 0.006739602928962025 -0.003660520031636833
3695 0.0017264864965473308 -0.01519032705237292 -0.0014596293475093334
1524 -0.033170501335967106 -0.019763269984864076 -0.0023185228638869654
691 -0.009537949819741019 -0.013008363874186971 0.0004588796673974456
1521 0.031571202045056236 0.0020099998832357013 0.001089825711564129
685 0.002812555869368133 -0.002205116321868258 0.0019263593115728063
1523 -0.0216102585820431 0.012465623735405424 -0.019683963649072947
1522 0.00866446331044623 -0.0062867542342773235 -0.024888479330089003
1518 0.0008705967645468882 -0.0014022523086772635 0.0046450506487140724
1514 0.0005885188502092189 -0.006218914436881073 0.0026797712184503594
1515 -0.005638293190068301 0.003021707740508291 -0.001108629413545934
1517 0.0023556914462845835 -0.00031977337818809166 0.003464849454606961
3686 -0.003721005068589018 0.0014933029556580101 0.004671478118512532
3689 0.0017190556420999344 -0.0011760327276811881 1.385616121914033e-05
1519 -0.00047100575305105113 -0.0014662190941114642 0.00935004445201613
3687 0.003634273875764688 0.004886063383390055 -0.005572065534376974
1516 -0.000867818056539901 -0.008939310068508078 -0.0017103060462727048
1513 0.005059690142960621 0.006444022271524197 -0.004142128947216689
252 0.02731125782322947 0.010104970638332203 0.012318512331436252
72 -0.004782982284677036 -0.014877966349528995 0.015286669527997662
147 0.0008977842875758623 0.0009555782860666352 -0.0008438434564519134
71 0.012445145316875109 0.00160956675400032 -0.005424725424395113
251 -0.02463033014909719 -0.0010363268378450054 0.003722207595119818
149 0.005744809055482355 -0.0013054065522039994 -0.0009249440541171985
66 -0.006171386596192752 -0.007889565540074691 -0.0034437460204075677
146 0.0005459667842768533 -0.0006357294282959607 7.308275878899681e-05
1936 -0.0016824436945786652 0.0031843493462824853 -0.006146445660309235
250 0.014257614781792292 -0.00021677583722626975 0.006409679673443446
244 0.0032378641954475718 0.002639126994942701 -0.0010941941995952374
2374 0.01616838270465537 0.0034765081150179133 0.0066758061022395955
145 -0.006271592354146517 -0.006124508240721675 0.0017337929889209068
3042 -6.681502180373903e-06 -0.0018901640014759627 0.005857711143275249
148 -0.005980130857009809 0.004514618586223267 -0.0014190138148427083
3040 0.0017545765989142594 0.0017586576847481636 -0.006004583997826548
243 0.010404719778266359 0.004538321862500004 0.0008235292768796205
3048 0.0006051348333822587 -0.02322286625813259 -0.010991707742936365
151 0.007226336084259247 0.009604170531364744 0.008591269881597233
2369 -0.0036473129802404385 -0.0021694468372316735 -0.004101440812919065
2376 -0.00201305653985498 0.007633846555366522 0.0025839486514284853
2370 0.003292424732778119 -0.007534114897897364 0.002102847143168525
70 0.01533244854203371 -0.011169110027225102 -0.03871256701894745
65 -0.0045206331100750945 0.0005082363042995578 -0.0020130731748327193
152 0.017452476901214087 0.012015233156769422 0.0031827471375609983
736 0.001280015734247049 -0.004297856287088407 -0.011734119511453226
2375 0.0068954507494698 0.001708211299547797 -0.033645026926630364
245 0.000908182068678525 -0.00031848557179737564 -0.0031834124151953573
246 -0.005356727654176625 0.001395346208597621 -0.005499586069660189
2783 0.004260294852483343 0.015526681211488187 0.007655617557101501
2784 0.013083364772987088 -0.0032853274747781805 -0.01222912889337928
2659 -0.0009647776599296044 -0.018793456756228476 0.02377875628179241
742 -0.010401046175944225 0.006412876489657834 0.001274688393384927
3341 0.003070415764960331 0.003217777840609719 0.0025094682764582477
3348 -0.0017011725386346503 -0.03384784411132214 -0.007348459010419614
1862 -0.00414560913758588 0.003204101745375496 0.0031190548489878436
150 -0.006301432000336106 -0.005918995666051573 0.00271200597777976
3741 -0.026335220677694813 0.003594071597895644 -0.022424268196317165
154 -0.007551098617469597 -0.026841639440653774 -0.015303517897734665
25 0.002359676626527581 0.0041655624311554935 -0.007883898950017428
155 0.0006042139261190733 0.006504987696942323 0.01463563677227268
156 0.014147209072208773 0.006982848714695604 -0.004123563096023212
28 -0.0011179657949403588 -0.0022763266141417188 -0.0032779669106911455
3347 0.0020374656220491 -0.0005083764803972499 0.02875599043163472
1867 2.287362385317503e-05 0.006569055459531835 0.016979084934913045
3342 0.003302911750426478 0.003986893195666173 0.007895116788035651
32 -0.024314886019533386 -0.011311122609617131 0.001721456115595029
31 0.013564858037966903 0.021154837345397696 0.017764521326383318
1869 0.009321423114083635 0.0034047801857824346 0.014772639924032896
33 -0.009849222556963888 0.00273035762104425 -0.003821713332783277
1861 0.00040525938043954325 0.004798840687405814 0.0002138221954692918
1868 -0.015136811695096656 0.025881108309338572 0.022575428938173055
2661 0.013813907896335244 0.002321682910619191 0.004398254961061042
2782 -0.009256151791532547 -0.029952293253175975 -0.003607000576694341
2779 -0.012015218143354798 0.0219976554217946 0.03087746582076299
2778 -2.718573001370321e-05 -0.0026935057870464637 0.0022601158542671714
2774 -0.005512163130082578 -0.00852058894464632 -0.004008080206397986
2781 0.0012785189431191778 0.001270645384324746 -0.01612680986368414
2773 0.0015203986935698214 0.00045937583020438363 0.0008168596431873539
2780 -0.0027554045546238667 -0.00698560288009711 0.009068665146214726
2775 0.001621601661585263 -0.004688644440096903 -0.00028297024304165213
2777 -0.0010685025220713974 -0.0023451011669579276 0.0064774461088637275
56 0.002188729237415284 -0.012883549448083061 -0.006489274873035653
2776 0.0066961911462885895 -0.008333594283763335 0.0010445812261182803
2010 -0.004762861026806208 0.0003860949603503363 0.0015078672250699204
3217 -0.00127327287410356 -0.00010236677297797225 0.0038477196499513574
2015 0.004714998225494638 0.00033524633177376946 0.023881710838575043
3225 -0.0030703395249243298 0.012338677038347179 -0.01319835168915701
3224 0.015880318426921686 0.005802376209793435 0.026215943358022485
3638 -0.0006681819906865401 0.007520115193954849 -0.006819052640230234
3644 -0.004458847206827933 -0.028547561473087422 0.016758792450832363
3338 0.004029136639258207 0.000272723185867633 0.008592432790651177
3218 0.0012681064174319338 0.0054698663121957435 -0.004371638932941525
3223 -0.010630316607940185 -0.01295159167779173 -0.0018997076422802976
2656 -0.005727480964511684 0.008023754627831859 -0.0024988619121604477
3645 -0.043871403471263296 -0.0015216082181167291 -0.0006049704526589496
3637 0.004239906661540859 -0.00135223171613054 0.0060154687230386614
2009 -0.0010121317113575689 -0.0014823373426902278 -0.0011528872283371446
2655 -0.004744328950563615 -0.0020642802270999655 0.00044865757196888993
1364 -0.019986053756685905 0.020432278997488916 -0.011107165201179544
1719 -0.002232399090735731 0.0018906879541453453 0.003870750763216713
3220 0.009028441468852079 -0.002990955339844423 -0.0036591290957583896
1365 0.01067061823709724 -0.025920345524771418 0.049015061156129885
3227 0.006693043275693521 0.010221338463986615 0.015475074403536758
2657 -0.003554201499906454 -0.0061016072520167644 0.001120790808461457
2006 0.0004048076455147198 -0.0005500795745237147 -0.0024660158800663464
3219 -0.0027091215423763935 -0.005201248825499855 -0.0029236859213829076
2008 0.009513078457175422 -0.00563616586429011 0.001725441499674829
2007 0.0066288675484423324 -0.002831633723398327 -7.763809989636483e-05
2013 0.012055107414919625 -0.019497137710379298 0.0079415276336497
2663 0.010841683364412309 0.0007127689319176573 0.03129728319169138
2664 -0.010117278772638927 0.0028827553860600267 0.018754297765035465
2658 -0.005460271483492722 0.00345974969940813 -0.0055190707834982845
3228 0.013464765461597156 0.012133113080867052 -0.005468659707703116
3221 0.006877650274467068 -0.0010910245259227948 -0.0033021748661238213
3222 -0.004404541434473941 -0.0005967684450542327 -0.0006897801431009169
3226 -0.004270410589542113 0.02653254803638508 0.015991460413106447
2662 0.02150268273904605 -0.009692676356339911 0.022824438309270917
2016 -0.002409889425556263 -0.0021333793238759494 0.045708665343559794
2014 0.005704852208229009 -0.025296518059969745 -0.015630271015363236
2504 0.025527346474779986 -0.010208986376312536 0.007430085855035133
2837 0.0005151821998986824 0.00010985122520320113 -0.0003922523070380666
2497 -0.0027783595511345397 0.0052918963618615025 0.0005312795567405575
2836 0.0006557594947427154 0.0018941239626507223 0.0026292626916676618
2500 0.003843132233526878 -0.0035816852547759783 -0.006845622684162948
1316 -0.026820701542452745 -0.007908106100136062 -0.012987291875867446
1314 -0.00017274621007085182 0.009492750185355421 -0.0027809798938392945
1727 0.0003729279695458931 0.025007299364217368 0.0008850427761337936
3693 0.01340476097431457 -0.012017668247659326 -0.0037146574645511477
2835 -0.003966088495266638 0.0010587115255833621 -0.0012774315268603777
2834 -0.006849082651380466 0.008851538510805196 0.0012818315457331418
2840 -0.005035077828474641 -0.009788189082604239 -0.007159626604785926
1315 0.013107045073884034 -0.0006920730234924164 -0.010779984581469743
1312 0.004436268864241336 -0.0014326849608434983 -0.006559377538788676
1311 -0.0033836549335040933 0.0007362442312853017 0.005644114393691963
2833 0.006470589669630939 -0.0029962875919712522 -0.0006715353891479872
1309 0.0026757123871347815 0.0039046004013758794 -0.00020554404643899658
1313 0.004839695762105131 0.0012996436409564707 0.002080642394461743
3691 -0.008668857417169825 -0.011662386221067059 -0.017382723523548044
3685 0.0013503706717668622 0.0008909788060431679 -0.0029988132674944232
2503 -0.008174486331429642 0.010808427629947921 -0.02636728943143251
2899 -0.0162405290444932 0.00750394925750589 -0.001837809245008228
1720 0.002593054961194853 0.0029570956605385985 -0.0006239302316128311
1319 -0.021477501509225422 0.019675800091640695 0.014918080790380083
2839 0.01610436539204888 -0.002395597698746069 -0.007916339492830878
2841 -0.005347997017134145 -0.0158272946735876 -0.0036954110766800993
2505 -0.01853342393777612 0.00035800018875051416 0.026396707340402555
3508 -0.0022251921319732817 -0.0030953180246007274 -0.0009308956138704834
1060 -0.006102180620667639 9.20537686314304e-06 -0.0019391245715142044
1059 -0.0043747417488836544 0.003573574040471392 0.003474538152313365
1061 -0.002323562146284131 0.001252258156347333 -0.0067695089611006405
3505 0.00016530325088678116 0.0015865522975457647 -0.007911821939670497
1058 -0.0003253762113068187 0.006477874297816747 0.007670616826434255
839 0.012573879885329356 0.005868880419840711 -0.012407124048856489
834 -0.0011850495319912344 0.014268327108307707 0.004106864129994144
442 -0.014674602924128555 0.0008339094790041677 0.004997136988420435
444 0.015087118689350353 -0.0025369221634140215 -0.023355835386767658
438 -0.005456248902832785 0.000647625619840287 0.0028146458213635303
1856 -0.016791018739870434 0.012073173125895877 0.008798913716371558
1849 0.002843820016729315 -0.002550409667827018 -0.0026148219375551423
1855 -0.0011114787695789517 -0.005066728993161291 0.021883282113515375
1857 -0.010878955793653286 -0.0011231649531402543 -0.017168874540431336
996 0.01685482732929916 -0.003826733293612163 -3.967257845851213e-05
2876 -0.0050956349417289205 -0.0027175710661181715 0.01199947018954764
2875 0.003887379736428017 0.006124850144698476 -0.00459239196720771
3511 -0.014283815171095043 0.02994818777430105 0.0038440002920702163
3513 0.0029963744606056678 0.006899623946897321 0.013143692286635967
1068 0.007792477511351934 -0.004696930106664332 0.010603211775338272
3512 -0.0013741924453496738 -0.010173506226159559 -0.002094517950056158
1062 -0.0018259423094764424 0.0006417030963960402 -0.0013666721653514888
1067 0.008822318089108102 0.003025682010653656 0.030590316615208907
1066 -0.0002165950181736941 -0.009337998416151608 -0.03023426269923351
2704 0.003208032946509814 0.010290579975023775 0.00028928073713859994
2711 0.014741226274038411 0.027322435748363724 -0.0142786489966569
2706 0.000353609304039329 0.0017682595232096057 0.0021018072830717395
2712 -0.010436884341565823 -0.01483890564673183 0.013390934890825015
2703 -0.001052131196590954 0.005848671085548991 0.006437699178391171
2710 -0.00016463367929064836 -0.012495401184696442 0.017267439218560103
80 0.005091584619584096 0.01797186472727355 -0.006791675981355459
83 -0.01301179619267689 -0.018819977582773557 -0.007434635627678964
2926 0.0030501482975899084 0.03986505845971614 -0.019077421040153492
2708 -0.017744457102095098 -0.02534835374855105 0.007547819823466908
84 -0.0011561697488530083 -0.01017814801610486 0.0210477269797303
76 0.0030837865635023167 -0.00022378534613756384 -0.00021769278353035221
2978 0.0009872606157734813 -0.002012509443474743 -0.0009746757878230531
79 0.010607477998526751 0.0002637393871936513 -0.011828048011880823
2988 -0.01910410216882369 0.004832296785917663 0.009754606410177983
2986 0.00634384868068271 -0.017892485941467026 -0.017127460238905292
75 0.001911443050301379 0.007555725524290206 -0.00018538906177500045
2705 0.007959576595924627 -0.002919533490168113 0.0025530290773826776
74 0.0018746694487832758 -0.0012340294281072682 -0.00033196281412576045
77 0.0025183120687861703 -0.005728717473068054 0.0016764283035837612
78 0.0007616850219745193 -0.0023809816266082526 -0.0008613328571604895
2702 -0.006746307407175174 -0.0007234121652593225 0.0034689954835757674
2979 -0.003187021400153306 -0.003067337387829345 -0.006477994367518981
1660 0.00013181959047771144 0.0002315611780721727 -0.0015921629708601243
2981 0.0026759514298372498 -0.0015077596673687054 -0.00016309289934335756
2980 0.00392892633426183 0.0005821647526178485 -0.003257375439882443
1662 -0.003981429946962735 0.0008675853982839943 -0.0037539696416808038
2918 -0.0022780105836278956 0.004088514017927126 -0.008670010061829027
2987 -0.03202317958767164 -0.01256072041216889 0.0016316912367000513
73 -0.0035113905105725067 -0.003736970552385939 -0.003103527457270551
1666 0.003551052220366659 -0.009480075081165733 -0.02714528719176341
2982 -0.0038196939624228522 0.009750313091982975 0.003003095231028664
1668 0.01625560097131688 0.0008466952581150523 -0.011622592733798431
1667 0.01570347536660476 -0.017720714816435515 0.004281726282549808
1661 -0.0011318947666651505 -0.0021246019068606853 -0.0030397731294794636
2924 -0.011857441327687639 -0.012355440145743917 -0.013333779534599464
2927 -0.016120830831429667 0.006104151029153009 -0.013275363450105993
2921 0.0043609003909815 -0.0044646204227673115 0.004202644439296646
2922 -0.004506108163693236 0.007026262055039328 0.002428484261109065
2919 -0.0046308491620548195 -0.0048446272653321736 -0.0012313313513255455
2920 -0.0005553808280909287 -0.0026795456988780897 -0.005230937907870131
908 -0.0037550551843869265 0.01860600862346334 0.009202294825388632
1133 -0.0025939124109014217 -0.0034342537042707775 -0.00439244805165661
2515 -0.021036024813021525 0.00282461072546519 -0.0021899476975572383
902 0.005287706178864876 0.0012364021028979481 0.004587036566715934
2100 -0.016390011791706356 -0.009904132694854687 -0.015413705682421367
144 -0.0035416516107250663 0.022288046021467823 -0.011459880537310205
2517 0.004588341887559124 -0.013533867667341229 -0.014917811423573868
2509 0.0004487745339711252 -0.0025507704928941135 0.0024189228789848307
2516 0.021518407189029996 -0.008037931211742785 -0.025967178571837793
2092 0.0004402249640048544 0.0015829529845526604 0.0008763748272423134
2099 0.01940178180628185 -0.01630554294839691 -0.004899221081397743
2511 -0.0004389968237215984 0.002606491879260496 -0.00040000868151254354
909 0.0013444490623138554 -0.007970991390304496 0.006281133781040642
2097 -0.010267250287044154 -0.021478443863291966 -0.0056854487140791206
284 0.007511586984890672 -0.026152756740587108 0.005072602813793978
1138 -0.010826914278921245 0.0031596779049878018 0.006149783715698025
2098 0.007251937167901525 0.005701765553169045 -0.0004509192873738811
2512 0.0029262224402737515 -0.001772733656160836 -0.001588994881365299
2094 0.001010167002767558 -0.004017575825602545 0.005607949155641414
2510 -0.0009047029739212474 0.0011973128605573466 -0.0002376405110112828
907 0.005926152806693195 -0.014222041263790392 -0.014013286842956864
142 0.0007868314584705594 -0.023358363859108413 -0.009561910104889984
143 -0.02691885156846775 -0.005806481718619114 -0.005815871171792519
138 -0.006074501040032311 0.000723693598106703 0.0007990569395088528
737 -0.0037592990925942107 0.007541990469315983 0.0014437907680034652
1130 0.002208706688170442 -0.0015596033472821168 -0.004101709088347299
137 -0.00761174720070643 0.004224620111488677 0.0025648587177203247
901 -0.0040857725023603015 0.0019283588049058742 0.003956245930015971
2090 -0.0027119992555827903 -0.006368961744009242 0.0019464121379317494
2093 4.764908647260662e-05 0.007685014659939369 -0.003201128706224516
2096 -0.017113092148999958 -0.005113866315414361 0.0020783737937860435
2091 -0.0012894109018329798 -0.00325275076024597 -0.0038964236132473374
2089 -0.004947239961887555 0.005520492201593169 -0.000636645489126575
648 -0.023726874881684148 -0.006731761969758699 0.003188530001017022
2513 -0.003044397091141307 -2.6578595167124906e-05 0.0007667410522960718
1922 0.0019425955557891349 -0.010505943881017202 -0.00402781048360514
1921 -0.001968951640249847 0.0059037872436639134 0.007531604595863026
1796 -0.014611735913262258 0.007877543863974445 0.00947548089167776
1789 0.0009311649710086249 -0.004701333351374538 -0.0018695228533455904
574 0.009151116590477586 -0.017060396466713743 -0.0070967933155492505
1797 0.01262995373814388 -0.008346730798020303 0.036606979377667465
570 -0.00028602830359760004 -0.0015011793898189415 0.007503120877900648
576 -0.00611957158167215 0.021573962422523053 0.0072007521899746935
1924 0.0009524794084166492 -0.0020349083560518137 0.0006500015426571313
1928 -0.0006299739742522221 0.013884770189940752 0.004182349814719717
1793 -0.006991033362331119 0.0024620018736825843 0.001574995532408234
1382 -0.003553509421149509 -0.0015201743011176707 0.003887860709117371
1929 -0.03367576952709161 -0.004313584912340509 0.017873088748151515
3344 -0.008826439910509812 0.00471296330049662 0.026027054840727083
1790 -0.00046853976238987754 0.0030007297935216656 -0.006595147797790884
1798 -0.012969628237535048 -0.0023844617160242877 -0.024021166920162602
2758 -0.008625980716659001 -0.009658063585994997 -0.0034507456792715243
1799 0.03348045631654089 -0.015693822440944066 0.0037021288379665888
1792 0.0009403936790381866 -0.0062709296193199345 0.003496123957081639
1791 0.003557960532059143 0.012469499906634878 0.005720617371299055
1794 0.004619230612999717 0.000456597634249426 0.004197828031744304
1927 -0.019605879310357642 0.00574452423372541 0.007681025008002774
2754 0.0007170224203394407 -0.004304379600030243 0.0033454795006383937
1795 -0.023822570390931715 -0.02042965556637005 -0.017134362379996333
2760 -0.010451052895484196 0.000952984236006025 0.02658235926574845
1381 -0.008719613257363035 0.0013653443600751033 0.003582372848592442
1389 0.01163707052741721 -0.00798075864269169 0.0011208714854133467
802 -0.02388568146925935 -0.012514982565026322 0.02431138430121471
288 0.002235000126314 0.007339400731385891 0.011599686837537737
2759 -0.00087071412621754 0.017696275697639888 0.0076919769991219975
3506 0.005132098557975804 0.002703267309612177 0.001785385078499287
840 0.014816730824816915 0.02388911938267669 -0.029166625631027305
3515 0.014812858622914912 0.01288778625473136 -0.018063352364197333
228 0.0097723480530392 0.013995062245097481 0.04345793841626708
1386 0.005315512913553572 0.004212206657099122 -0.009294024456849648
3509 -0.00038731200174899603 0.005382449255448959 -0.0015395511551184714
2044 -0.0009993584305795754 0.0025366006440729967 0.0038531558950340443
2051 0.022640952081998376 -0.02140673096893285 -0.013175855385449619
1385 -0.0015568092305902085 0.004243653997680053 -0.0017693456660003532
1383 0.0009894516969610717 -0.0017324263918426564 0.005701100291843686
2042 -0.0020846285157942296 -0.0012786901371014375 -0.002608125512775659
832 0.0049222688488744625 0.0020072724045196817 -0.0009037525090356674
1390 0.028382105855217644 -0.008279946687042138 -0.000631621268893474
2043 0.0004868588009741108 -0.010041973179041501 -0.002601304113811959
1391 -0.021835507918337004 -0.0020914448423469327 -0.039113454049203335
1392 -0.004915298329501344 -0.01892272325536196 -0.004126106530531663
2052 -0.0034125725615963484 -0.016424616212250793 0.003674333393678183
2046 -0.002465632621804028 0.005005419335148688 0.0035487785770364428
3507 -0.00047069414110206587 0.007593873257649055 0.006364090664168207
2045 -0.003178824180825964 0.00021548362947816505 0.0045839242400936946
838 -0.0023881012219802936 0.012679700518958453 0.02070108547599179
801 -0.016012729525491855 -0.032820102662926426 -0.009440147822457468
226 -0.008464925869100729 -0.006607645566779359 -0.028680522790369957
1384 0.0008842292569505971 -0.0063931403710678495 0.0002969432984063482
1800 -0.011425142228145687 0.01011238212422074 -0.0131432969452965
3514 -0.014471250289542286 -0.0041632723456058954 0.037270025948019515
3001 0.0013624226404034888 0.004090475691113215 -0.004965350822147361
3516 0.002701104717223952 0.002471991289839336 -0.008699864993885703
3009 0.0016591313948276717 -0.016828266650219602 0.004867646602638358
3510 -0.001690215185395766 0.0037342892207684717 5.093274397155296e-05
2050 -0.029290738544239976 0.021147458550811293 -0.01585395255235887
3068 0.016606550715985515 -0.04053457955514955 -0.00848183225332898
3472 -0.005340129640334626 -0.0034898786038704897 0.0025262612049822587
1239 -0.00511718261644838 0.0027020686676389525 2.18083183119918e-05
3469 0.0035065363656938938 0.0044560712825971035 0.0037931743865797607
3473 0.0018246009641056777 -0.0016405494260749364 -0.0021783825282628683
439 -0.015349687312474122 -0.0013344810643538471 -0.014752223594911924
3471 -0.004921405428681597 0.004314095453417956 -0.00417531384209927
1241 0.00040928751872129003 -0.0010389579233431611 -0.002385970910921564
1670 0.004367086411883767 0.004027261039633375 0.0026107756277242164
1246 0.005480159635776102 0.012487349945933646 -0.006132970047172998
436 0.0021569361658316105 -0.002240287319090592 -0.0029269532323223666
435 0.0026638899189240102 0.009976420072738076 0.0050211995353060404
434 0.003362908977563853 -0.0014013846706540857 0.00035954751159034674
437 -0.0002124902509540988 0.0021115795344167037 0.005822728923045292
1512 0.006845692498413741 -0.004616484022105752 -0.00432216234260719
1248 0.006404450019599652 -0.00569861712680432 -0.008226392868591016
1247 -0.004163039911262253 0.018155642432237572 0.02695736148039996
1242 0.003570154301900053 -0.005948277091487117 0.0073368961748799715
441 -0.012990497056411412 -0.00042418079200906735 0.011467067480943297
433 -0.0028430288115745815 0.0008052505540826364 -0.001262108538382558
440 -0.0008618967950205521 -0.01016679339315361 -0.024198192696384287
3470 0.004573081201091277 0.003960193222875899 -0.006596686184593001
1505 0.004224586554710573 0.006746430959986764 0.0012536937171005891
2440 -0.0024243244451618347 -0.0014452332615659104 -0.005185121108926847
1295 0.01378234529739058 -0.022515490437282955 -0.03869762392638807
1294 -0.014170866896055673 -0.023541011553877566 -0.0002455835587795185
3475 0.004127189423140163 -0.015170751947028237 -0.0076004148041774215
1511 -0.022555179067908226 -0.01957852291216725 -0.0013948786206606366
1506 -0.0011505226184412285 -0.01016728254632549 -0.0035295861594043083
1510 -0.028162274705966463 -0.0031759571272425603 -0.006562592883261113
1179 -0.0033471454071918694 -0.0031206550704123903 -0.001144612584096274
2446 0.004559323961859645 0.01048053681117437 -0.010538144914706544
1612 -0.009220564769349128 0.0024643254296204597 0.003995880159707388
1618 -0.01350628093184331 0.007080815232988875 0.011712528052003292
1614 0.0013386971099068055 0.004501547832231836 0.002886123670689979
443 -0.021111303390120687 -0.023338335288548652 0.0015736854709420768
1289 -0.0003254670469350055 -0.002175907267484513 0.006386060394257948
1290 0.0021624503605907107 0.004409504738848643 -0.007393840962685606
3210 0.0018321748644417853 -0.002309418104309097 0.005354045205816704
1617 0.0010354884155786008 0.016808960566678438 -0.02019874118384605
1286 0.0023189672307834404 0.0006614523860481717 0.0020690112815157126
1292 0.030773973311458973 -0.0036393981311492653 0.017048942059361465
1293 0.003882862886331368 0.0025638083745970785 0.027633228742340216
1285 -0.006446857136924129 -0.004622035956960866 0.01201172353157586
1616 0.021871561057532792 -0.003308299454139486 -0.018971892892554524
1291 -0.007734437986084983 0.03785358528789974 -0.006428539610394582
1279 0.0039898084297890525 -0.002824068274081567 0.009922332187247938
1611 0.0014851623201390862 -0.0047777610317567 -0.009248368501726566
1613 -0.007028367919483276 0.0011570996303053344 -0.004380615398076815
1610 -0.004113125666053501 0.00445107543916405 0.0014349049114234988
1609 -0.000995310281947619 -0.0019463195176467067 0.0035072825561857242
2984 0.022784673623666058 0.03064472766268675 0.009589903409691765
2977 0.0021010695086841956 0.0047137682134759445 -0.008224473140502871
1615 -0.010537572682809169 0.0031450275692102036 0.0061543849218438735
2985 0.0038672725708781444 -0.005068882119294095 -0.029055729235112227
1287 0.007193563633395668 0.0090775864247003 0.0013418522647429775
1288 -0.00833638460896127 -0.004747089484022916 0.0016205016858829842
3216 -0.023824252708352405 0.02356970169012874 0.005075899830169667
1280 0.008974687364019027 -0.023875417073226525 -0.0011316660634771408
1281 0.024823446448191608 0.01586133309081552 0.004405078866788392
1273 -0.013153626666530794 0.0019135849261794115 -0.0007515946442775599
3986 0.0003115179747236566 -0.00512327841830441 0.004357082712152628
1274 0.001169536955924588 0.00045839383329194556 0.0035576047557104432
82 -0.02718459368952726 -0.00048756981674742613 -0.013506183243691785
1093 -0.0037770478199946854 0.0037791902741488594 -0.0045770164688026475
1101 0.01888552356553539 -0.012268585918169459 -0.0027917903064788195
1095 0.006120920718997448 0.001894954125512549 0.0033921549639612885
2983 0.029350955101685193 -0.009587915486527439 -0.002152165006736729
141 0.00551192300710163 0.010698477237434157 -0.006844933663400165
641 -0.00025124425638197557 -0.0017944557226716017 0.005630247116195379
1096 -0.0012671662894259978 0.00023509360397596662 -0.005005081217719417
2670 -0.0014580802031875532 0.0020472663944584454 -0.0028191091446623205
2674 -0.004753067531182858 -0.010913869134760843 -0.00817430397193739
2675 -0.023788180413806106 0.019431213065747435 -0.00636923404321435
1129 0.0032781280537798737 -0.0014718141152143473 0.0003406792831162161
1099 -0.0074224273437853905 -0.005459557836896245 -0.0032986932942554786
3985 -0.0009513919412703427 0.0077542294897178085 0.007999960326249164
1137 -0.016900160463787773 0.003318793589254806 -0.008877590423816613
3991 -0.004111224573618668 0.033606930015082394 -0.006698961789799835
1284 -0.0015417645729114634 0.009730558658004429 0.017786794157031046
1278 -0.001504146871367362 -0.007381298778946066 -0.0033605283482362656
1277 -0.006396415745718153 0.004135857647777342 -0.002204940121644073
135 0.00015413805185372014 0.0004077753189760769 0.002373141764352463
1283 -0.032330001788691234 -0.008361902709009422 0.01488611691350448
2105 0.006013755534505889 -0.002173302339794053 0.003437990949440659
1282 -0.006112697415950592 -0.019947644084087987 0.005019802987735562
136 -0.0021705105409245257 0.003516444609738137 0.001290856445766241
1275 -0.003112110245792043 0.003737559023464926 -0.0034739188589939783
1276 -0.006478666787823357 0.0033912154850400714 0.0004950297937966355
140 0.01381091795738589 -0.020674500139335212 -0.012957605311592322
139 0.0033509008403482905 -0.01109523440624914 -0.0012073674888584403
133 0.003655971802758779 0.00369652019600978 0.0029737777126127027
134 -0.00018523863113869532 0.005195024659529914 0.002281340309834116
3993 0.04742182498173918 0.004113047957080289 -0.011058035857244292
1324 0.004841320617859504 0.0024413256334348695 0.0008150921241524154
1100 0.021327855633363178 0.01582165857092643 -0.004054399051956704
1387 0.0014892305774671182 -0.013024014602677207 -0.022896351300707583
1191 -0.009378845552243529 -0.0012618167255206037 -0.006074691008085214
1194 0.002919877707345146 -0.00012198010032894777 0.006013689683464306
1327 -0.011781957654110817 -0.004402621627601265 -0.005898380983584731
3011 -0.009208116549615309 -0.057832784291198126 0.004923564101691696
1322 0.002484216660495055 -9.612144007641316e-05 -0.001908869716020894
3111 -0.006261482597522213 0.001570855872579734 -0.002309522803634942
3012 0.007137272092392406 0.0030890987070575264 -0.009605720547671722
3110 -0.005222596489530572 0.0052640712585175055 0.003391649043297015
3118 0.0015673737833289863 0.004145475786836667 0.03046024129039169
3113 -0.007074212691200688 0.0029352184372951943 -0.001009857923785976
3732 -0.03236455879568627 0.0006972109595617508 -0.002649150025262721
1102 -0.027647889771969855 -0.0039797933344366465 -0.013490702855844779
643 0.0014558690243665071 0.007858063289377718 0.01316543465265028
1843 0.013975856457659922 -0.011045911869411775 -0.007327203665444652
1388 0.00021944846931952445 -0.017352485660073982 -0.005463398362339571
1321 -0.0022312251828728595 0.0028711101867126255 0.005619653477384775
1329 -0.019728809850135455 0.01670013939559809 -0.001800830817210449
1925 0.0004915371921842467 -0.0014492034655960758 0.006513234953195597
3114 0.0019450533077320109 -0.002184757335467961 0.010351113749944532
1193 0.0009608856564325057 0.006736269935197596 0.00839121149468299
1923 0.0036860349017163374 -0.004249844786754332 -0.0010404947115440879
3119 0.012513505475615994 0.0019849416245844844 -0.01023155672563458
1932 0.030236249397170054 -0.0032461948780703057 -0.006816238387039764
1931 0.0012729749323227458 -0.007962435082915961 -0.02939807845167158
1926 0.006602852450847766 0.008067749345327306 0.0010838410307027631
1328 -0.00649888201082497 -0.017531336342344637 -0.006269650796732625
1930 0.010891700887257036 0.00043595352131914876 0.014556704429782222
1200 0.014476199590824483 -0.00897440773725786 0.045517865795454075
1199 -0.00410745981456207 -0.002943626834541521 0.010153481164972472
638 0.0039687844371744455 0.00549866798404095 0.0012578963527802762
1198 -0.028862780691162722 0.009696469334096134 0.018264307225487875
3006 -0.005231396664570633 -0.00012063817050033167 0.007443341161899244
3010 -0.014741449463472603 -0.004980360988604134 -0.017640943476965883
3004 -0.0006336498951741192 -0.008125490906847095 -0.00016087539385953203
3583 0.002856131284903964 -1.3635512440556318e-05 -0.025591220038306293
1188 0.02438466677924095 -0.001795091350920756 -0.013921845833907404
837 -0.012331984037718471 -0.018721929754403878 0.022269319581787538
3003 -0.003521634170507329 -0.004460282833292787 0.0005403774484330556
833 0.00399059026888779 0.003720502907674256 0.0026221938794833135
830 0.0034410204410657837 -0.0017831308232398675 -0.005081698621611967
1186 0.004415220813140795 0.02205766678355924 -0.015931611629289993
1181 -0.0009243947923657906 0.00025625457550351716 0.0029737288576809247
3577 0.006511996205028292 0.013137710911472438 -0.0004803677321446243
956 -0.005856524403991868 0.025721914488980743 0.007823932384255055
3584 -0.000466145914687409 -0.007811818540057664 0.006100206196002724
3578 0.0018149923716404839 0.007102524003358508 0.00277971957816783
3580 -0.00141641569755585 -0.0016895696128894407 -0.00010152163019446002
3579 -0.003222227007311503 -0.0021579605252314716 -0.001896334002755413
3585 -0.022179825793830966 0.034737123805070956 -0.006676256249636283
3005 0.003837340816315607 -0.003499540050257422 0.0032101841461998817
835 -0.009514048731084947 0.009473121448038432 0.003419352641107465
831 0.002082029515049088 -0.0019206372171040066 0.0009581967250025554
829 -0.0045375767164590715 0.000637064257003147 0.00034543041437269927
1192 0.012459306172693828 -0.00036429423533549976 0.00206390094926746
836 0.00875338103085027 0.0006535566479394748 -0.008303884520059653
3002 0.002926857495820424 -0.0019979342816707915 0.0012012538269345675
3478 0.020232695859768512 -0.009903253130487597 0.00871328302275832
1182 -0.0037744167619469743 0.004582020854970082 -0.0044673631669862315
1187 -0.015608472746619037 -0.011336628012823433 0.02083975011181361
3728 0.003168690196194945 0.00641505730952843 -0.019647278827687402
3730 -0.007734190084881671 0.00332839590507934 -0.013137789929576043
3726 -0.0037887161057868807 0.006926973919301391 -0.006122985675717659
1180 0.007062682767160906 -0.0009033670936291987 -0.00020282697876990966
3477 -0.024064672269073103 0.010659944349182403 -0.029994380494004134
1238 -0.0012941085660214695 -0.0012658995251223519 0.0024730080876666097
1676 -0.016713418897209415 -0.0044970705000805964 0.008996523596027524
1675 -0.023378671251608852 0.01388754179324942 0.01789067761244976
1669 -0.002845543756126456 -0.0007191339242999292 0.005108673775253102
2189 -0.002251987423636125 0.0006972185066036333 0.005146805871326844
1240 0.007710347353951682 0.0010017990118317951 0.001507652235733316
3680 0.010069056737855067 0.0070070048789324 0.018384709284863788
3084 0.0044457802065118075 -0.014343812704351696 -0.011547223290135631
180 0.007299116471092296 -0.016516030732647655 -0.02307131398033424
3855 -0.004828345934278843 -0.003281931599260769 -0.0018647123184731948
3856 -0.0013132652935459576 0.003564153865862268 -0.0010431420736464294
3859 -0.010265922909625004 0.024715111857069285 0.003776656902282306
3861 -0.0002223452206133837 0.013325090128649205 0.003769585913801826
3854 -0.0002397001378158324 0.0040349135649265224 -0.0008852735518323945
3676 0.002741126329224707 0.005156485224173602 0.001935190815524936
2194 -0.018837357888511 0.002805515884627887 0.0005769740345412895
3853 -0.004414008890703691 -0.001222078812947401 0.009020863776171438
958 0.004356889395683414 -0.024733608480798554 -0.033757029690930786
3682 -0.002788609168764155 0.008251235355995465 0.011440002118771504
3675 0.007750065540909853 -0.002492450921824257 -0.0004938132964268481
3674 0.0033013178734495083 0.005813172548151468 0.0010190255109267013
2190 0.0028729051469139587 0.0008692858392397378 -0.00016152258110478977
3857 0.006118080729582144 -0.00859339997172514 0.0052915947836354406
3860 0.017575843907429108 0.00029437952953178907 0.022177650134009824
2196 0.0003927489934817053 -0.028725393030610797 -0.01715977944026774
3082 0.0012658195621803902 0.0028878727694913856 -0.002716336017223741
2123 -0.012259027241978863 -5.142302218039102e-05 0.0026796590859212905
2298 -0.007761814319678278 -0.005078196823398324 0.0068066330063047
2297 -0.007950486222834785 0.003690813560402008 -0.00025526989770712286
3673 -0.0023129310292866107 0.003184617840358985 -0.0008789492999548132
2304 -0.006861599754976663 0.01491070143004193 -0.013140270255098995
1245 -0.045210013923797726 0.02670187103773926 -0.005496333201269525
3078 -0.000528406581355946 0.006840137853820855 -0.00719512098071619
3075 0.0067324695194791355 0.0046684445382443734 0.0007717727540531201
3083 0.002933453727319965 -0.009533755290899929 -0.012800253775536528
2720 0.010504934226205163 -0.010079766520096102 0.005132480306969606
3073 -0.0008791144743640136 -0.0034566674141318803 0.0017150041283238104
3076 0.0003628438309866486 -0.0034706223829903023 -0.002861349648760101
3074 -0.0006460955592575044 -0.003585199526835637 -0.0026374183418221113
3077 0.004017018981722443 -0.0012500685037328528 -0.0018363358146266753
2303 -0.010257470572717978 -0.005234119652069971 0.02244819391622536
3214 -0.006870449381043407 -0.011021370095680359 -0.002754867723959413
1237 -0.006229416830880656 0.0018978159711104173 -0.005082902354059771
1244 -0.030626821480710012 0.0248081965021546 0.010192624839376661
1243 0.0339998213052641 -0.005068342908833421 -0.04189688893825119
2114 0.0014441371900482316 0.006573799602390233 0.0019602769735404054
3080 0.00017909931872523222 0.002028746422769597 0.0032937645170309253
3081 0.00253440920883507 -0.012778908738557705 -0.012001472859898072
2117 0.0018380259631320247 0.007950100983582953 -0.00015023960721921077
3679 -0.0057522005281822365 -0.021189267306279295 0.009697650288075064
2115 -0.004355127484369771 -0.0028407256179896955 -0.0018350468547322712
2118 -0.006830053147912284 6.476253870572662e-05 -0.012402765592631575
2124 -0.02460301665498329 0.017042248505095607 0.011665588313455011
2106 0.005548732066598756 0.00030609122870867974 0.005854178971140583
2053 0.0033308248819509615 -0.002794427000941819 0.0012328510193094604
1834 -0.0170322449547811 0.008224038839890301 -0.02495149381245573
3403 0.008781236601830748 -0.020672968585137442 0.0012953916046485815
2721 -0.006921769031521969 0.016970860760680006 -0.0013220133441877607
2294 -0.00011268959849818128 0.006081960726759344 -0.0003575979044609672
2296 0.0010923717174744986 -0.0066532492368872685 0.002373767209249084
3397 -0.0023863133329041337 -0.003903836303747987 -0.007113152849394887
3407 0.006473491106452167 0.005868184702228873 0.011545985505013285
1836 -0.009054749046826422 0.016630903317772765 0.014115289035293771
2295 -0.007293059159814126 -0.0021271824795163403 -0.004630298230468979
3405 -0.030261253992460983 -0.047094982227137164 0.02769817772221684
3406 0.0217540918449372 0.0027636076990910623 -0.002438553302250544
3398 0.004080797663797181 0.0025754063674005563 -0.0011511148066128006
3404 0.02652533446567094 -0.020442083490949708 0.003208655619650035
3399 0.0010456270432629264 -0.0022092494144634435 0.005334949906111478
1828 0.0025087366138757186 0.0004971378867274907 0.003323017645571377
1827 0.002569980637668586 -0.00037742750965486573 0.0009459163983347736
1830 0.004851796582538757 0.001695861393359012 -0.005170997878307015
3400 -0.0030878084783931632 -0.000450085491853791 -0.0005831927728280177
3408 -0.0036711094415204774 -0.010948961703449854 0.007885937991740304
3401 0.005753229154309165 -0.008611340726072933 -0.006630196999450208
1829 0.001038598902878957 -0.0010319910255370396 0.005220636366310014
2122 -0.0035117597021644153 0.016683707330138707 -0.013159289011111373
3402 0.0017299076284552604 0.0025660764691585506 -0.0026632372180317395
2060 0.007349952112805542 0.0011420350210835717 -0.012761147207050383
2061 0.01643559610214365 0.0030506422538067847 -0.032272401563548804
1103 0.0010069456419658856 -0.025191254919974145 -0.005724148096343186
2110 0.013422109357408531 -0.0022396066404866697 0.03768393875272275
2112 -0.01707044173689723 0.001756916469384629 0.001674305342752983
2301 0.00214863486419609 6.059456124647325e-05 -0.018928028908736745
2293 0.004739811830683463 0.005485849392896215 0.00314085237681237
2300 -0.004083042436515985 -0.006938166394281294 -0.008332439070157138
2111 0.01016224104725168 0.006269835346303784 -0.010821122413743754
1817 0.0026614387257475947 0.002573562585292884 0.0023538543928680374
1815 -0.0016230879197225892 -0.0033714103304290323 0.00393911156524222
730 0.001727491932675798 -0.015918661006642403 0.023955534104993664
2451 0.006527719126389574 -0.00044015550600318224 0.0014445054456608487
2452 -0.005446836624530021 -0.004408728412715315 0.0010076277228976737
2449 0.001326881796744411 -0.005304837787210032 0.010664915416463293
725 0.00437411069132325 -0.0009587682233782154 0.014500821958507788
2063 -0.018388337773609337 -0.008562558799983602 0.0010748437784628506
2054 0.002050514121351277 -0.005763335710175064 -0.009673280039862567
2450 -0.004997081936851731 -0.0008375306637712521 0.00036048542554461513
732 -0.015176642788420286 -0.0023998206537504266 0.008395510054376262
3112 -0.0005191909050699989 -0.0033027699852111393 -0.007730435092945786
2457 0.022718546852218635 -0.00763174974983433 -0.0015585270283097598
3116 -0.002236536014801389 0.016823810818630616 -0.002670022141955162
3109 -0.007412076297107828 -0.012205266456092628 -0.003356255799072355
1814 0.0026653441958957307 -0.0010328768008643593 -0.009223174264692248
2059 0.007344225377713336 0.020371228300303475 0.025080265464646784
2056 0.0008358046867942971 -0.0025849402141617604 0.0037004628937534266
2456 0.003931851899603492 -0.017171951291706244 -0.010538989487598962
2057 0.00040786905329666325 -0.006845107031055493 0.005071574085860362
2064 -0.018687319119679763 -0.015269268881099616 0.009456260109959235
2058 0.0025113417709659237 -0.002498890567850656 -0.0004881693330575767
2055 0.006186834695053999 -0.003052920680796834 -0.0011460787821410505
2455 0.023487900516993447 -0.028241283081516654 -0.006477554970150252
726 -0.0003855868736744443 0.00015113257595810128 -0.007876495831577854
3300 -0.017601624941250133 0.03158317981246602 0.022083769364073993
3120 -0.008861429942709846 -0.01083943969894341 0.023988461433267584
2062 0.008753425357506494 -0.006235743376973393 -0.012837799712408388
1816 -0.0011514160208902398 0.0007665744921562142 -0.0019257901965876534
262 0.000247018907375923 8.853711833113758e-05 -0.015329101573199283
1819 -0.019288044518965958 -0.01343567500271151 0.0080268647175299
1813 0.007055645064974944 -0.004172170235485644 0.0020968411788668357
3257 0.0011198878176457386 0.009897726131526376 -0.0013883469460255846
3258 0.016829436596979067 -0.0024518260670606325 -0.01121709643857574
3262 0.006188205610305774 -0.004114936101238431 0.014256256676228159
3264 -0.0017094598559151896 -0.01837173739408571 0.019949197753951896
2828 -0.0018851866722816165 -0.014840919988712132 0.016058936712011185
3864 0.02785807043377457 -0.016974885495673192 -0.010387758070379312
957 0.016711852437509778 0.0060981769896348076 -0.008580796671525955
3581 0.005694843687036049 0.002463107960727578 -0.0011343019596503118
2454 0.004238186885066261 -0.006773259759048637 0.004586140234580452
1821 0.015707903821088217 0.015815681636723103 -0.004092845776590369
2453 0.0053208826603334146 -0.0004155059613226466 -0.00035248548025333903
3587 -0.0029224527543630766 -0.014914341822354868 0.007125606974898983
258 -0.0013751393866060495 0.001762086950577064 0.006747603683637676
2458 -0.002962066020382084 0.008822005103969412 -0.015463413275760042
3263 -0.019498788209994834 -0.010893382299196133 0.01945884607704475
2829 0.012743239899618971 0.017385446122902392 -0.0019744313268192704
3588 -0.009178450071585284 0.013085929494557681 -0.0006918674347104665
3863 0.020371326775645897 0.012165853107814564 0.012802401455484235
953 0.0072680869899845214 0.003510784162223827 0.0024130196473537966
3582 0.0012723669525039768 0.0013427157571642096 -0.01093073264897081
3586 0.004221121889765547 0.013388983185198764 -0.0023840958740322235
949 0.000609289442566224 -0.002061302937730094 -0.0038341626535431045
955 -0.007944199473217648 0.006747804054145465 -0.014275526286927343
950 0.0029147005454805267 -0.0019057700296311326 0.0006469322041028657
952 0.007974732994607868 0.004509491350865175 -4.3136040446079376e-05
3858 -0.00571303734211301 0.00013381525605388704 -0.002439278572561826
951 -0.0012933271645788817 -0.008221427326151358 0.003720119813188861
3476 0.03174890208634025 -0.027941250939734406 0.02708793930042993
3862 -0.018792588212251757 -0.005630042089839868 0.011777749397225012
959 -0.0053190710845295985 -0.011136017878861067 -0.01011179672723784
1820 0.006375435303115324 0.028383236575300893 0.004507286253360491
2188 0.005267340820062248 -0.0010102084615646685 0.0003796129575213759
2187 -0.005326440345255947 0.007053758689472924 -0.006660446360857192
3248 -0.0007794467761372022 0.01570483539223159 -0.00915209633782955
2174 -0.0015182726252331877 0.0004802927394499552 0.0027362131797687823
253 -0.0016732379572900198 0.007058450334291057 0.007815678169228908
261 -0.010449542904423438 0.0010391130102396136 -0.0069012048630344635
2175 0.005857101076046871 0.005876069203696327 -0.004953692444969789
1701 -0.004814318131954856 0.014835404463235221 0.03918876601582107
3557 0.0032120656028942563 0.002886774237756494 -5.014310250518963e-05
3556 -0.0010607893365695577 -0.0011114302288820455 -0.002844253481405244
1700 0.05382224485115315 0.0022934632993766384 0.0027985695692203023
1942 0.013854609473844618 0.0021911539919172622 -0.005959445964844754
1699 -0.0179668603210999 -0.0103490723322382 0.011133720515297651
3564 -0.011318056933024805 0.0023793485378873786 -0.020766593837832352
3558 -0.0002635692003655657 0.005293133145491336 0.0018862390134786967
2195 0.01202266558859662 -0.011067777251697502 0.005434879936605921
2183 -0.0055094230870633525 0.00472169012606093 0.004352664141158735
3555 0.0004541336803390188 0.0007758157039821803 0.004351368540287722
1938 0.00137890537974791 0.0032061009161398323 0.0023800517470255918
1693 -0.0032696486551688922 -0.007742202729026155 8.601635624228059e-05
3561 0.013572410810123094 0.010301890555423335 -0.008084180826624944
1694 -0.0015369088591664682 0.0011395779926358515 0.004883138349672975
3559 -0.027597485333151706 0.0005241219614243693 -0.0005916861586648554
2177 0.001449352588501942 0.008567298313361539 -0.0022510834525682794
3554 0.0024156926951703715 0.011224289000587615 0.0009299765926973717
3553 -0.0019336770895408452 -0.0038275331185334844 0.00486643869325994
3560 0.01608881496556294 0.04556376555999102 -0.007574883788424166
2178 -0.009393727797203955 -0.002177960782131554 -0.0012927490882412992
2182 0.0037307648367756944 0.000830238270729464 0.011692167499894187
3563 0.024217148477284976 0.011257224278720139 0.008354698597563109
1944 -0.008808902202928787 0.02026735400764998 0.008366344137657385
260 -0.016876367470741047 -0.027503651426760624 0.011395940829996865
2176 -0.006885659425135565 0.0013793479988597067 0.006591445651469817
3562 0.007833728720888222 0.018560409987913824 -0.02414736595680004
1207 -0.00623918315655596 0.00693063230869231 0.002411938837968562
2150 -0.0011053371969747263 0.006704275580941674 -0.0009628185806370258
3079 -0.025481911868229398 0.008565381888388037 0.017085378873879713
1209 0.0002088100659708002 0.01375808221387117 -0.0009206808518063814
3356 -0.010871417278716685 -0.006612149165448323 0.001659595898357074
1201 -0.001759219571416339 0.007127971203115684 0.001590942255688355
2302 0.0187705208060439 0.005942725556921586 0.008549272596762782
3357 -0.002823602769320135 -0.003722876048296057 -0.0009737073524973939
3241 -0.0017819380592607812 -0.003167123124539189 0.003990950062053122
3681 -0.0017344000905354484 -0.012417049459629504 -0.005416055485699401
3249 -0.042423908786270635 -0.002291177514768083 -0.03364778889127274
2736 -0.011576206024613086 -0.0029667600751093243 -0.009775220106893079
1208 0.028385132602629586 0.004583560634222109 0.019167935947537462
2731 0.00032791629014055983 0.017621075048917086 0.009453733896897125
2119 -0.002582186844851359 0.013063557120694033 0.015637028174729967
2121 -0.006767383290447489 0.00346550433451041 -0.007487697494363159
2732 -0.023595532088567628 0.01840574998699345 0.017175385401895223
1937 0.005480951071962653 -0.004239392453153947 0.0010911021134697347
2728 -0.00033863579705784757 0.0035283390104196115 0.0033507533235020656
3244 -0.0015264470090283785 -0.0007907519159826885 -0.0043083122930308235
2733 0.007188858516425988 0.0017558927726390103 -0.015125621534498354
2735 0.004054437055003502 0.009155567385225638 -0.03514797196420296
2734 0.008467137620659865 0.0020247259202980945 -0.027758467611929124
2725 0.0072006127283563886 0.009756350861448706 0.002193436880612704
2730 -0.004637479002953558 -0.0023353451803537232 0.0016145053120644767
2729 0.006693798842167363 0.0031805276084553667 0.006026055941202424
3247 0.0047797960061933065 -0.0017009438349476274 -0.009901836938405862
2726 -0.0007676912820499752 -0.0037809085374447644 0.0014721829986767275
2113 -0.004668829088333434 0.000902045418182308 -0.001096604381016262
2727 0.0033050696108495783 0.008759225361215173 -0.0017325568952150877
2157 0.025944625988641768 0.020513282021034286 -0.012278474110623236
53 0.0008945417219023242 0.0029067274151300965 0.0011447602117077512
448 0.0007269715264090406 0.0015228556846035473 0.0021984801576770243
1832 -0.02011800586867855 -0.010957829198821213 0.005726680311369319
2158 -0.014513376711131523 -0.002683852626602688 -0.007927243567587913
1833 -0.03303384256228936 -0.0022206658955603777 0.01309020167490869
2156 -0.014263058529182684 -0.010337081119776404 0.0062280705605872325
2154 0.006408552014745758 -0.008216961376776098 -0.0014674342637917485
2197 -0.008409786718883143 -0.007968472743784177 -0.0061460532940270296
2204 -0.0170334161869551 -0.003587481777966971 0.00599580686538601
2203 0.004521903626303944 0.010018069850773198 -0.011375881568063528
2348 0.009585443818106432 0.0060765106774358845 -0.0163040825058815
2159 0.0034252598512255535 -0.014465934937752837 0.01347965846985961
1826 0.004922525970484552 0.0037253714623479367 0.002059856168996748
2149 0.008992072740169884 -0.005919894461823922 -0.004069489030313326
2151 0.002571882569955396 0.008102592174133111 -0.005466746982119861
2160 0.03760203106261472 -0.01405304233820305 0.017158845605479107
2785 0.000778743207337161 -0.0031495526896948155 -0.003132888707111099
2793 -0.004778054027781989 -0.0034325880446757066 0.00951907612639776
2153 0.0029565557753758226 -0.007603562342548699 0.0019894195567151103
2483 -0.017381805791063423 0.018151866603753633 0.001270966453940398
50 0.001399361757198885 0.0028924650952880924 0.0027738969572789042
2299 -0.006723711568506341 -0.02049876016520444 -0.01255755881297621
2155 0.021997582363947617 -0.0005456762634517368 0.009262560542444035
2786 0.005808559021381136 0.0019485430261051901 0.004088739190994191
2787 0.0031539579724304974 -0.0003328311599581845 -0.0017159665377660756
2788 -0.004111927565913573 0.0037548047983189457 0.00024130967766670844
2205 0.0037297923112120895 -0.03273766336849389 0.004640758596552002
1825 -0.009637174204885982 -0.002037114970697818 -0.00314293506550204
1831 -0.011235370484669611 -0.007475328866913785 -0.0016741472825012548
2152 -0.0008999225587947902 -0.0032979239285345387 0.005154982105377875
2791 -0.026684372219266797 -0.024805408691923107 -0.008066132068021158
2792 0.016854851779338816 -0.009664726795408751 0.015662539182617462
2481 0.021400408571321455 0.007231562732585625 -0.0037967420701465054
1823 0.02627013422603803 -0.003110549488373087 -0.006831778232730966
2475 -0.0056852552236987906 0.003296384225758987 -0.0027027853354337716
1070 0.004845322420828433 0.0008232779207180175 -0.0024947704179682493
2476 0.002258791721672331 -0.004141289301937873 -0.0001891457220378621
2482 0.012287564504231761 -0.000649715893266714 0.001504561821752682
731 0.0013591334556636908 0.002494089872653071 0.005846132313904403
2478 -0.0032763121754870407 0.005523672856008271 0.004232243500380124
1071 0.00430785711125533 0.010560360903402153 0.0044833567618777
1077 -0.012187754782760806 0.018915319113395758 -0.0033096574969266684
1076 -0.007358891326797069 0.013900286175847223 0.015523803518769289
2480 -0.003554742943463089 0.006213346199119171 -0.014694381421198412
1072 -0.005229657678606629 0.004127736514100974 0.0025962333611858437
723 -0.0014553618650740613 0.0034755753054851912 0.004492116519597683
722 0.0031036247547742285 0.001785053027256515 0.0038210813688717565
1069 0.00187216771683177 0.004222410537448629 -0.004660148253683295
1074 0.007265686828915939 -0.0023246403791049417 0.002341083373540974
724 0.004677927148726236 -0.002304547009096815 0.004217529468540224
1073 0.0024663947889646603 -0.003927959723562157 -0.0053003499714490065
1079 -0.01733970233568981 -0.00843743995835023 -0.00995569619125573
721 -0.002455060129631163 -0.00042022006655270823 -0.0026695638125230777
728 0.03537587394788103 0.014423113830261661 0.009418792489267611
1636 -0.0030407995324706685 0.0022555730304077933 -0.0018139673769498603
1080 0.045873653105493656 0.011087285306404269 0.019806133958043533
2484 -0.02088083394726573 0.007442543914232171 -0.03155619438129722
1644 -0.019838290430800893 -0.01760883319860341 -0.009369543423478966
1643 0.00010346246143752825 0.009844942319951309 -0.009921240999232871
1642 -0.006451943427598058 0.012672838227538131 0.0145863623983247
1638 -0.00017493382690454432 -0.0009512281194831306 0.0002701987934940433
729 -0.007286512303640673 -0.016663394365847954 -0.020212118616360315
1078 -0.00041031911393334965 0.009967185657849192 0.03937132117360368
263 0.006676673491080837 0.011140028318576993 -0.004359627378010983
1570 -0.0019503602372957808 0.007043644944009089 -0.0013617597401696026
1563 -0.0038530260246258104 -8.314607958131533e-05 0.006096993770543378
1562 0.009397746802873834 0.0030516985826939277 -0.00010938176914953486
110 0.004545748361641441 0.003131554623193263 0.004693661827280334
115 -0.0032150581022085344 0.0046301398555511466 -0.0014689838058944775
255 -0.001520880002161088 0.005976503558117054 0.0033589489675898932
1568 0.003772037278972504 0.028931696136902503 0.019446433905806765
256 0.0006296384588230711 -0.0054507550200514196 0.007251291405254381
1561 -0.0022924428169175007 0.0016651606991241485 0.004079868640269776
2821 0.003047795365667328 -0.004444511121370317 -0.0016792220978320213
111 0.012110561227015362 -0.002052489936328931 -0.008444889401552092
2827 -0.009107962480106584 0.006423741534460841 0.007013677047260657
1567 -0.014979300735226658 -0.002848643512147686 -0.029084824227655032
2822 -0.001266972489692138 0.0031554299987387536 0.0018017072781103135
1564 -0.0018532431712757653 -0.002062700516246788 0.003281634357122883
2181 -0.01801387634391229 0.01375704683867654 -0.009242560604601841
2180 0.01771724625387847 0.015605594610215897 0.017459353794495015
2173 -4.506489217549614e-05 -0.006947825560112163 -0.008314224957570589
2134 -0.005983571881704525 -0.002267021619089835 0.013799483007974211
109 -0.006153090082855379 0.0016164590525711146 -0.001105860219760231
2130 0.0007366532497185142 -0.0021503065373196903 -0.0011722047286610178
2136 -0.0041999099171154885 -0.02446171452627357 -0.017850728675916527
2179 -0.0033745194965304117 0.0011009483464251653 0.01826866242468668
116 0.02033142442661207 -0.013635836455987897 0.002963667936850294
117 -0.011183845664630267 -0.010647456099816523 -0.002080219860688463
2135 0.01746899562299024 0.013725109786973777 -0.008576963371547718
1565 0.0026987209904927563 -0.00358263213590646 -0.006010038672481991
1571 -0.0194612591741565 -0.010294059140010964 0.025657558304647624
1566 0.0015606419412961725 0.0031874054336048035 -0.0064926303218436066
2129 0.0034361144318041095 0.0003421272213119548 0.0036430293811145708
1943 -0.011430175329095868 -0.004085032033295138 -0.01260531688444383
990 0.003489545093504084 -0.0006110026228700141 0.0032628143557086394
2878 0.0018217927083951117 -0.013457103156334022 -0.0015658440699518673
2597 0.0015202505111600645 0.001973563953196552 0.005379004128482262
994 -0.00721102888117718 0.03332617532276073 -0.012788534675878689
2604 -0.01641566681218726 -0.006184176902836094 -0.005842002301851569
995 -0.0011416448480074998 -0.006707292732238656 -0.009529815762252803
2595 -0.003366078271589031 -0.0017894164882351262 2.4061334019363996e-05
2598 -3.272063656388372e-05 -0.0015474715390546951 -0.003606545573095971
2596 0.005234629434263141 0.00121032094076671 0.0035561002939780953
1569 -0.0040556626860328284 0.026785859950566145 -0.03015879267023673
2877 0.009050056387708654 0.011844624490265895 0.0038234012226035907
2874 0.006034302861798592 0.0019484548755560166 0.005075698427832071
2316 -0.005400206274745926 0.004687891179598798 -0.018031471609529965
3548 -0.008951336507126298 -0.0005499323510075567 -0.0161823629639823
2602 -0.019116234698437106 -0.016273769861038886 0.020114728319723652
3552 0.013660400315950158 0.007517280341341468 0.009198330864967135
2873 -0.0015143415883695777 -0.0006988010851791312 -0.0014911376955981943
2594 0.0021480196846541937 0.0019597116021404194 -0.001988191608681894
2310 -0.0008955012828593869 0.0006225199993627955 -0.003610424005470951
3542 -0.0005180186452999559 -0.004384145119547416 -0.0022124686139203963
3551 0.010460057933008074 0.01208302557441642 -0.009710441770890232
3541 0.0006171950821447496 -0.002167935597583065 0.009219983329332757
2872 -0.0017383664974171351 0.0019624876244883046 0.0058664720815236
3550 0.008290082061615637 0.006631318030345033 0.02120000988106384
3546 0.01190928115240304 0.00034008127163555866 -0.0026539453249604813
2871 0.001305576175361229 0.0016247328048766445 0.0025985596411351934
3543 -0.0013136642400009874 0.002519598973975292 0.0014934235910302178
3545 0.000500402922289468 -0.0016111270982570496 -0.0015047863030614268
3544 0.002308368059045146 0.0005335875062140066 0.007753665548650845
2869 -0.002885747205528507 0.003278413795385277 0.00026732904075346984
2870 0.004359927844220742 -0.005059116854752268 0.0005634490725121515
3547 0.027279785407396877 -0.0215063089549093 0.01089429183087367
249 0.009814284758123777 -0.006055276647292404 0.002863470055233433
3549 0.013695220661432896 -0.01501653133279075 0.005828054671067326
248 0.03694841093973959 -0.0017718622151443992 0.017319838634943262
2252 -0.009841584262545866 -0.014854419508470277 -0.024636979514242197
1233 0.013783313475568765 0.032079086446624154 -0.04537743989275895
1225 0.005006566038549407 0.004219576473527854 -0.006727237610881437
1212 0.0036910576093204957 -0.03457694480589638 0.028538139651002936
1231 0.027450954595667952 0.007059247410490933 -0.01284173571174543
1202 -0.0015841120374305913 -0.001711950102758909 -0.0034777704575843084
236 0.006880323700875927 0.01639429248599571 0.020666059228145614
1203 0.0028828929605367584 0.005592552955363766 0.0012911055591788908
2923 -0.008234857385189972 0.027742760869279768 0.005128694320081693
2917 -0.007153408149690784 0.009079685552355575 -0.005939351016433302
1205 0.0033039652971777415 -0.002869409527579881 0.0054738636324474
1210 -0.0032291903346246976 0.023381134838340784 0.0028245164102126408
242 0.005111044246224759 -0.0036514263294770972 -0.0027551951154554826
1206 -0.004422532266995319 -0.006786167614157584 -0.0031586271915396134
235 -0.02439682456467929 0.02402162674433365 0.005973129287071527
229 -0.004834903984979744 0.003915089545442142 -0.003772717086149127
237 0.028221443327030304 -0.018816737385671505 0.00032958255383999684
2925 -0.022355299324814264 0.007197428847500391 0.008236529811086598
2251 -0.0012527278332589626 -0.006687227564968794 0.003172477987575103
1211 0.01483644403764609 0.010190416373312085 8.899066779721778e-05
1204 -0.004132102683497815 0.006227559615369307 0.0016981051226404508
2245 -0.0008585616304473348 -0.0029955806788568647 -0.003667961731186462
241 -0.0009630400138101545 0.000872164428506316 -0.0024133392840519547
247 0.02565437676693976 -0.01883913966124292 -0.005493163728979927
238 0.0005136285445241126 0.007048882507930852 0.005358379914638689
233 -0.0009534423982460026 0.0016781618195954692 -0.00030142031481291727
239 -0.006352795196977211 0.003503393695711389 -0.003406397219001202
240 0.0029940597623115415 0.00208281762304443 -0.010807390062869205
234 -0.0021029600915393977 -0.0025691930235966407 -0.006208249758333486
231 -0.006358128378985861 0.006864821435147008 0.0046731497516498705
232 -0.003993899569416355 -0.001755380728226663 -0.002410714654122245
230 0.003525954607231163 0.0025476048466212633 -0.0044805199029177905
743 -0.0006422997261574478 -0.005301902339442918 -0.006153703865025141
1234 -0.01693658118331666 0.0025476976137893755 0.009986747892458667
1235 0.004478103643578802 -0.014054808372623184 -0.003951124520327274
1226 -0.007433511517923997 0.000938887843550641 -0.0016214390394549713
3339 -0.0057901511538972425 0.0019118988237728936 0.0005287324357714688
2201 0.000593851848255966 -0.00453327654871389 0.001411052330595787
54 -0.002675854175244182 -0.0023156424026964484 -0.006219105389479133
1232 -0.013990952708126081 -0.01811116288645611 0.009576970547533764
59 0.0026668172688130445 0.010150651751253495 -0.006837893783914199
2206 -0.008911615715546854 -0.015235553268030663 0.0031718215950429685
744 0.00540200211317108 -0.0025307822655518866 -0.007861377149503844
58 0.011867007186060145 0.015778989360895616 0.011099593397591348
1227 0.00017005969230196122 0.0005716431086064491 0.005196860555708352
1236 0.02163854412864751 -0.012816230198465083 -0.003306195772100358
1228 0.000510241085272769 -0.0003568295895825275 -0.0038846366067311483
1229 -0.002071942743333629 0.004855292406096674 -0.001176493238863495
1230 -0.0010121004193507878 -0.005642250864761626 0.0007694500101845926
2202 0.0038993907080682824 -0.003287482403515361 -0.006340254169484669
2349 0.014151015268078816 0.02283292757147052 0.015584574368660165
738 0.0028226177716863922 -0.0046230401651967705 -0.00037382801228757947
52 0.001477134453204177 -0.0005907877496102243 0.0028399071812758793
51 -0.00035772454262897606 -0.006399945394413987 -0.0009192246932584849
2253 -0.024066950542082473 -0.02877507021013661 -0.002062437864099227
60 0.013602765300088747 -0.01727180778581144 -0.017007846390579104
3096 -0.003379540681014918 -0.008345683836801872 0.008007301858245794
2199 0.0038297869235648114 -0.000358544534118338 -0.004647026408145358
2207 0.016567460905294363 0.013348492187643628 -0.012403515769552377
2208 -0.0051826173456163025 0.014424255269239971 -0.009802185737268557
1640 0.002715034484356983 -0.006294268480079388 0.007897855100604988
3340 -0.005358013252673618 -0.00020513692269856826 0.0023258978252927364
2200 0.002320279761091247 0.003620936630327911 -0.003272157320759759
2198 -0.004879028519040617 -0.0005925654724912634 -0.0028219552426417068
3337 0.0011217425354761645 -0.0037789840410193554 0.008451054094678733
3345 -0.008900983009411003 -0.03622628813946177 0.008342801571120228
1639 -0.007569093514882938 0.018479951991116163 -0.018195618028462816
1410 0.006463539763538363 -0.007931929243532258 0.0035330542944025196
1634 0.0002932342844499356 -0.0011978926033760745 -0.0020086377653811584
575 0.020352360439158192 -0.001640554958863328 -0.02328590374372478
566 0.008144200324182416 -0.0048916780035269895 0.001010661189068847
1409 -0.0021094185890555683 0.0006911549792715815 -0.007017889642664628
567 0.00345898921380239 0.0009980674544545437 -0.00040686196125218707
569 -0.0005227407523198701 0.0019031208190384938 -0.0038847658638688307
568 0.002174468275961687 -0.001950555811411184 0.001904046503338956
3920 -0.007122154082172962 -0.018689588801348356 0.024774302812652065
3916 -0.001631183302509077 -0.00218103503856218 0.0004909149823439861
3915 0.003591570616363447 -9.763692884054888e-05 -0.006761110127024441
1641 -0.012030258069750926 -0.0009568122142553615 -0.03447076962249686
1633 -0.006248402348448943 -0.0012746407861897369 -0.0010103784518169334
3919 0.0015840000771643592 0.03242122724729996 0.004096364601203059
3913 -0.006912983390689738 -0.00031477676172096696 -0.004198986545434192
3914 -0.008266716003511655 -0.0023240864181900828 0.0045553809427176
3921 -0.00803489656398817 -0.016259982638589306 -0.004603487925634254
2011 -0.01804913651643973 0.009937901622076993 0.001522735127917332
1414 -0.009285545249506031 -0.002211495795390817 0.02312649496511719
1635 0.0026535731509934697 -0.0010486335660260238 0.006639355935880359
1637 0.0006847339334408795 0.0019687745567004257 0.00497952609719387
3343 0.011331243310173341 0.0066786196296702415 0.0007567523291339008
2005 0.0033029842367096407 0.002852863679137009 -0.0015753474359563432
2012 -0.0038913028451141654 0.0022133864427477173 0.002860569209354058
2498 -0.003347124631397905 0.0019825232651710717 0.007854017267119429
2499 0.002083087459217788 -0.00026254890359772153 -0.006973741094661987
2879 -0.012514295639797538 -0.02443365063833719 0.037462123111788995
3923 0.011849178493115911 0.006741082477248901 -0.02732632268670949
3917 -0.0007277686449349361 -0.004372525733130362 -0.0002637743483006036
989 -0.0014128379468838427 -0.005549604324128896 -0.005337071744458305
3922 0.006980406303693002 0.02370858449710903 -0.001855881921628113
3918 0.0047028873885780545 0.00027991278728331916 0.009874329723340916
2508 -0.019108640061047292 0.01795399154116166 0.011771785976952368
2507 0.0006926158240942817 0.03165354951400626 0.021453569136032705
992 0.005009333096963728 -0.006472615597787315 0.01374379482509971
993 0.005574878194753109 -0.0049351843091102405 0.0024480486130468598
985 0.003294467657607592 0.006467111979058428 0.0006436732988510127
3924 -0.008664543829505097 0.0021787558144287043 -0.032177377929971544
1572 -0.005689874665655364 -0.0037932174974204856 -0.012892525885945926
987 -0.0005576068354920035 -0.005257412242419441 -0.006788109277836277
1415 -0.007063395689260069 -0.020964362493941426 -0.006028814556457786
991 -0.00043734494323848286 -0.016529065322449358 0.013125919943494328
2506 -0.0023096710044265122 0.00010168151703948298 -0.004119551014952186
2603 0.0334514068522938 0.01582443413602406 0.0024172019684515164
986 0.002721060795902007 -8.424560521164345e-05 -0.0028491609599775717
2501 0.00027032149153041805 -0.0038884482986085967 -0.0009649135929764345
988 -0.0011539390711575747 0.00617920084162661 -0.002285053619898198
527 0.000632145453254379 -0.0058437794019627455 -0.012744088965049097
2502 0.002236525579339724 0.0004947306065847404 0.0011385779061659138
1416 -0.03363246946001956 0.0013242141632852137 -0.004975343851749834
2315 -0.007738613018103376 0.0070196265060400356 -0.001524557923581699
