LAMMPS (22 Jul 2025)
KOKKOS mode with Kokkos version 4.6.2 is enabled
  will use up to 1 GPU(s) per node
  using 1 OpenMP thread(s) per MPI task
package kokkos
read_restart    kappa_restart_7
Reading restart file ...
  restart file = 22 Jul 2025, LAMMPS = 22 Jul 2025
  restoring atom style full/kk from restart
  orthogonal box = (0.71446759 0.71446759 0.71446759) to (36.662232 36.662232 36.662232)
  1 by 1 by 1 MPI processor grid
  pair style bamboo stores no restart info
  3996 atoms
Finding 1-2 1-3 1-4 neighbors ...
  special bond factors lj:    0        0        0       
  special bond factors coul:  0        0        0       
     0 = max # of 1-2 neighbors
     0 = max # of 1-3 neighbors
     0 = max # of 1-4 neighbors
     1 = max # of special neighbors
  special bonds CPU = 0.001 seconds
  read_restart CPU = 0.029 seconds

pair_style      bamboo 5.0 5.0 10.0 1
pair_coeff /mnt/bn/ai4s-hl/bamboo/bamboo_finetune/thermal-no-all-13-ft-03/k0r0/density_r2/k0r0-density_r2-0/checkpoints/finetune.pt H C O

neighbor        3.0 bin
neigh_modify	delay 0 check yes

compute         ke all ke/atom
variable        kB equal 0.0019872041       # Boltzmann const. (kcal/mol·K)
variable        temp atom c_ke/(1.5*${kB})  # per-atom temperature (K)
variable        temp atom c_ke/(1.5*0.0019872041)  

fix             1 all nve

compute         layers all chunk/atom bin/1d z lower 0.05 units reduced
fix             2 all ave/chunk 10 100 1000 layers v_temp file profile8.mp
fix             3 all thermal/conductivity 500 z 20

variable        tdiff equal f_2[11][3]-f_2[1][3]
thermo_style    custom step temp epair etotal f_3 v_tdiff
thermo_modify   colname f_3 E_delta colname v_tdiff dTemp_step

fix             ave all ave/time 1 1 1000 v_tdiff ave running
thermo_style    custom step temp epair etotal f_3 v_tdiff f_ave
WARNING: New thermo_style command, previous thermo_modify settings will be lost (src/code.byted.org/data/lammps_bamboo/src/output.cpp:912)
thermo_modify   colname f_3 E_delta colname v_tdiff dTemp_step colname f_ave dTemp

thermo          1000
run             500000
Unused restart file peratom fix info:
  fix style: STORE/ATOM, fix ID: layers_COMPUTE_STORE
Neighbor list info ...
  update: every = 1 steps, delay = 0 steps, check = yes
  max neighbors/atom: 2000, page size: 100000
  master list distance cutoff = 13
  ghost atom cutoff = 13
  binsize = 13, bins = 3 3 3
  1 neighbor lists, perpetual/occasional/extra = 1 0 0
  (1) pair bamboo/kk, perpetual
      attributes: full, newton off, kokkos_device
      pair build: full/bin/kk/device
      stencil: full/bin/3d
      bin: kk/device
WARNING: Fix STORE/ATOM not compatible with sending data in Kokkos communication (src/code.byted.org/data/lammps_bamboo/src/KOKKOS/comm_kokkos.cpp:766)
WARNING: Fix with atom-based arrays not compatible with sending data in Kokkos communication, switching to classic exchange/border communication (src/code.byted.org/data/lammps_bamboo/src/KOKKOS/comm_kokkos.cpp:779)
WARNING: Fix STORE/ATOM not compatible with Kokkos sorting on device (src/code.byted.org/data/lammps_bamboo/src/KOKKOS/atom_kokkos.cpp:212)
WARNING: Fix with atom-based arrays not compatible with Kokkos sorting on device, switching to classic host sorting (src/code.byted.org/data/lammps_bamboo/src/KOKKOS/atom_kokkos.cpp:218)
Per MPI rank memory allocation (min/avg/max) = 8.709 | 8.709 | 8.709 Mbytes
   Step          Temp          E_pair         TotEng        E_delta       dTemp_step       dTemp     
   3500000   301.61784     -444101.28     -440509.51      0              0              0            
   3501000   300.33006     -444086.38     -440509.94      1.3865007      71.88313       35.941565    
   3502000   303.82183     -444127.09     -440509.08      5.998151       69.022762      46.968631    
   3503000   300.40179     -444086.38     -440509.09      13.281294      74.556933      53.865706    
   3504000   304.667       -444138.75     -440510.67      19.885477      79.828086      59.058182    
   3505000   299.62965     -444077.59     -440509.5       21.685277      86.149971      63.57348     
   3506000   303.58431     -444124.97     -440509.78      28.637353      85.987467      66.775478    
   3507000   299.64895     -444077.75     -440509.43      32.224809      72.12304       67.443923    
   3508000   299.34985     -444074.28     -440509.52      38.268892      59.150298      66.52241     
   3509000   296.70402     -444042.25     -440509         40.588223      56.440919      65.51426     
   3510000   297.56941     -444054.19     -440510.63      41.943844      64.300145      65.403886    
   3511000   303.0206      -444117.72     -440509.25      46.444452      67.824977      65.605644    
   3512000   299.51042     -444076.38     -440509.7       51.302033      73.947604      66.247333    
   3513000   299.11093     -444071.66     -440509.74      56.332071      67.458447      66.333841    
   3514000   301.19096     -444096.25     -440509.57      61.1264        53.070813      65.449639    
   3515000   299.36284     -444073.91     -440508.99      65.368787      60.46154       65.137883    
   3516000   302.38211     -444110.34     -440509.48      70.947063      57.913953      64.712946    
   3517000   298.78388     -444066.91     -440508.89      75.10579       68.142816      64.903494    
   3518000   299.21103     -444073.31     -440510.21      80.730471      74.045887      65.384673    
   3519000   297.20813     -444048.66     -440509.4       85.083034      71.62731       65.696805    
   3520000   304.71724     -444138.19     -440509.51      87.081618      75.376739      66.157754    
   3521000   297.03464     -444046.72     -440509.53      89.062454      70.732567      66.3657      
   3522000   298.56932     -444064.31     -440508.85      93.642697      70.211288      66.5329      
   3523000   303.95199     -444129.38     -440509.81      98.087085      71.320963      66.732402    
   3524000   295.02323     -444022.16     -440508.92      102.34828      75.587307      67.086598    
   3525000   296.4574      -444040.12     -440509.81      110.90328      63.100638      66.933292    
   3526000   298.90351     -444068.62     -440509.18      115.38618      77.267482      67.31604     
   3527000   298.84893     -444068.06     -440509.27      120.43474      63.882594      67.193417    
   3528000   297.33022     -444050.62     -440509.92      124.09962      59.317092      66.92182     
   3529000   299.33554     -444073.44     -440508.85      126.28882      63.359389      66.803072    
   3530000   301.35939     -444098.09     -440509.4       128.10518      87.975693      67.48606     
   3531000   303.06142     -444118.53     -440509.57      130.2884       82.282537      67.94845     
   3532000   299.56015     -444076.62     -440509.36      131.93792      86.641354      68.514901    
   3533000   301.39556     -444098.81     -440509.69      135.6343       79.03814       68.824408    
   3534000   302.80795     -444115.75     -440509.81      139.88199      86.625964      69.333024    
   3535000   301.01764     -444094.19     -440509.57      145.98192      69.398926      69.334855    
   3536000   296.38275     -444037.75     -440508.32      152.64084      79.652105      69.613699    
   3537000   301.74584     -444101.69     -440508.4       159.13938      68.785957      69.591917    
   3538000   304.69819     -444138.09     -440509.65      164.63018      78.86176       69.829605    
   3539000   297.45968     -444051.44     -440509.19      170.01848      86.271437      70.240651    
   3540000   298.16094     -444059.59     -440508.99      173.90682      84.972223      70.599957    
   3541000   295.35882     -444026.25     -440509.02      175.50513      79.197543      70.804662    
   3542000   303.29551     -444120.88     -440509.13      180.31401      77.341594      70.956683    
   3543000   299.16804     -444071.66     -440509.06      185.32844      68.031357      70.890199    
   3544000   298.78969     -444065.94     -440507.85      187.51576      52.391355      70.479113    
   3545000   297.72809     -444054.12     -440508.68      191.45026      49.666814      70.026672    
   3546000   300.96503     -444093.84     -440509.85      195.8002       30.094744      69.177057    
   3547000   301.0272      -444094.34     -440509.61      198.02538      32.788302      68.418958    
   3548000   302.5732      -444113.03     -440509.89      200.38223      41.425169      67.868064    
   3549000   298.72946     -444067.38     -440510         207.8132       57.422665      67.659156    
   3550000   299.16067     -444071.66     -440509.15      215.7812       54.776763      67.40656     
   3551000   300.22438     -444084.56     -440509.39      220.52004      53.859399      67.146038    
   3552000   304.58195     -444135.97     -440508.9       225.22907      34.625784      66.532448    
   3553000   297.99616     -444056.44     -440507.8       232.83665      51.627724      66.256435    
   3554000   295.5236      -444028.28     -440509.09      240.52901      45.227415      65.874089    
   3555000   293.92291     -444009.09     -440508.96      245.16406      63.243507      65.827114    
   3556000   300.89125     -444091.91     -440508.79      252.4505       67.251923      65.852111    
   3557000   300.56096     -444088.22     -440509.04      258.06391      50.703571      65.590929    
   3558000   304.86134     -444140.16     -440509.76      262.10607      60.640186      65.507018    
   3559000   299.0268      -444069.88     -440508.96      268.76857      63.955869      65.481166    
   3560000   300.18025     -444083.56     -440508.92      273.66067      80.056356      65.720103    
   3561000   304.83969     -444139.91     -440509.77      275.73281      79.690541      65.945433    
   3562000   300.88393     -444092.38     -440509.35      283.17184      64.584543      65.923831    
   3563000   297.82339     -444055.88     -440509.29      287.35258      63.056671      65.879032    
   3564000   298.85817     -444067.31     -440508.41      291.73144      74.578971      66.012877    
   3565000   296.34204     -444038.09     -440509.15      296.67389      56.422078      65.867562    
   3566000   300.94365     -444093.25     -440509.51      301.75857      56.854123      65.733033    
   3567000   298.17586     -444060.69     -440509.91      304.14979      61.74892       65.674443    
   3568000   297.47919     -444051.28     -440508.8       308.26488      84.313309      65.944572    
   3569000   297.99481     -444057.88     -440509.25      309.72608      71.035076      66.017293    
   3570000   298.94119     -444069.06     -440509.17      314.18453      70.40177       66.079046    
   3571000   296.01619     -444033.88     -440508.81      315.714        56.722964      65.949101    
   3572000   293.35673     -444001.47     -440508.08      319.21515      68.199231      65.979924    
   3573000   297.5872      -444052.59     -440508.83      325.8466       73.33799       66.079358    
   3574000   298.7523      -444067.25     -440509.61      334.87881      71.538769      66.15215     
   3575000   296.11674     -444035.28     -440509.02      341.11492      62.617856      66.105646    
   3576000   303.70396     -444126.53     -440509.92      348.77042      76.56248       66.241449    
   3577000   301.80697     -444103.62     -440509.61      355.43637      74.260271      66.344255    
   3578000   298.11833     -444058.88     -440508.78      359.83753      49.529638      66.131411    
   3579000   299.01678     -444070.28     -440509.49      365.89261      67.881869      66.153292    
   3580000   300.87279     -444091.5      -440508.61      367.71657      68.150459      66.177948    
   3581000   296.81065     -444042.88     -440508.35      372.29099      61.147733      66.116604    
   3582000   298.63134     -444065.91     -440509.7       378.6208       50.180767      65.924606    
   3583000   298.82873     -444067.5      -440508.95      386.31875      65.511716      65.919691    
   3584000   299.86102     -444080.75     -440509.9       390.59151      68.426746      65.949186    
   3585000   298.72711     -444066.16     -440508.81      397.05588      63.30301       65.918416    
   3586000   299.51524     -444075.12     -440508.4       398.4711       53.965872      65.781031    
   3587000   301.88773     -444104.44     -440509.46      404.38088      60.238665      65.718049    
   3588000   301.08186     -444094.19     -440508.8       410.98636      50.42719       65.546242    
   3589000   300.65471     -444089.59     -440509.3       418.65308      59.199737      65.475725    
   3590000   302.14466     -444106.75     -440508.71      425.76653      81.765802      65.654737    
   3591000   302.76474     -444114.59     -440509.17      431.36877      75.773602      65.764725    
   3592000   299.84943     -444080.16     -440509.45      434.8823       70.15618       65.811945    
   3593000   296.8284      -444043.56     -440508.83      441.81359      80.183565      65.964834    
   3594000   298.52957     -444064.59     -440509.6       448.26935      85.101739      66.166275    
   3595000   297.47325     -444050.88     -440508.46      452.23579      63.39959       66.137456    
   3596000   304.44676     -444134.22     -440508.76      456.91271      67.92099       66.155843    
   3597000   298.46277     -444063.31     -440509.12      461.30983      68.479428      66.179553    
   3598000   301.60004     -444101.03     -440509.48      463.35737      52.150117      66.037841    
   3599000   296.99645     -444044.91     -440508.17      467.41039      59.765581      65.975119    
   3600000   297.87993     -444055.66     -440508.4       472.7425       65.255442      65.967993    
   3601000   301.08871     -444094.16     -440508.69      478.08316      76.39038       66.070173    
   3602000   300.51302     -444087.41     -440508.8       481.42453      89.45389       66.2972      
   3603000   299.34244     -444073.44     -440508.77      488.09595      74.388473      66.375       
   3604000   298.15397     -444058.34     -440507.83      491.75644      73.868239      66.446365    
   3605000   295.61387     -444028.56     -440508.29      496.57195      66.550741      66.447349    
   3606000   297.24085     -444048.06     -440508.42      500.41133      79.537335      66.569686    
   3607000   297.55225     -444051.47     -440508.12      504.99177      81.656053      66.709374    
   3608000   298.0796      -444058.72     -440509.09      506.14678      87.157195      66.896969    
   3609000   295.14069     -444023.47     -440508.83      511.34769      90.274566      67.109492    
   3610000   294.70447     -444018.22     -440508.78      515.76656      67.86117       67.116264    
   3611000   299.18398     -444070.75     -440507.97      517.91242      63.757393      67.086274    
   3612000   301.09197     -444094.97     -440509.46      519.85459      69.325353      67.106089    
   3613000   303.96014     -444129.06     -440509.4       521.29027      66.676894      67.102324    
   3614000   299.41025     -444074.38     -440508.9       527.0865       57.293008      67.017026    
   3615000   298.3915      -444062.16     -440508.81      528.92121      62.042825      66.974145    
   3616000   296.26434     -444037        -440508.98      534.22007      59.182583      66.90755     
   3617000   300.93271     -444093.06     -440509.45      536.57308      64.809646      66.889772    
   3618000   301.8648      -444104.5      -440509.79      544.01642      34.634542      66.618719    
   3619000   299.50477     -444075.81     -440509.21      547.95592      64.085373      66.597608    
   3620000   299.9117      -444081.19     -440509.74      553.10169      76.733549      66.681376    
   3621000   297.97328     -444057.12     -440508.76      560.41955      70.769757      66.714887    
   3622000   298.22331     -444060.28     -440508.94      567.22802      69.863171      66.740483    
   3623000   299.38194     -444073.81     -440508.67      569.4562       55.79685       66.652228    
   3624000   299.92054     -444079.66     -440508.1       577.31314      60.697317      66.604589    
   3625000   299.41231     -444074.81     -440509.31      578.96751      76.857808      66.685964    
   3626000   305.25999     -444144.31     -440509.17      583.59949      75.126535      66.752425    
   3627000   298.84372     -444067.97     -440509.24      589.58547      59.287473      66.694105    
   3628000   304.22067     -444132.5      -440509.74      593.51606      63.122924      66.666421    
   3629000   302.36927     -444109.5      -440508.79      595.34953      67.886412      66.675806    
   3630000   300.93128     -444092.81     -440509.22      596.47595      60.192375      66.626314    
   3631000   302.73955     -444113.84     -440508.72      598.66206      61.366657      66.586468    
   3632000   296.14142     -444033.81     -440507.26      600.70212      59.771504      66.535228    
   3633000   298.64065     -444064.69     -440508.37      602.61852      52.496322      66.43046     
   3634000   300.94175     -444091.91     -440508.19      608.51286      45.970803      66.278907    
   3635000   301.12304     -444094.72     -440508.84      612.23172      60.07532       66.233292    
   3636000   300.28345     -444084.94     -440509.06      616.63328      72.280998      66.277436    
   3637000   297.72925     -444053.41     -440507.95      621.80481      67.805355      66.288508    
   3638000   298.61817     -444064.38     -440508.33      626.41666      65.404963      66.282151    
   3639000   303.39007     -444123.06     -440510.19      636.15704      84.315047      66.410958    
   3640000   299.53127     -444075.5      -440508.58      638.10108      67.781348      66.420677    
   3641000   297.14694     -444047.28     -440508.76      642.71628      79.053795      66.509643    
   3642000   298.9552      -444069.62     -440509.57      646.93619      74.149835      66.56307     
   3643000   296.7854      -444042.84     -440508.62      651.56705      52.679665      66.466658    
   3644000   297.70106     -444053.44     -440508.31      653.7013       48.191546      66.340623    
   3645000   305.43928     -444146.88     -440509.6       656.28827      45.053673      66.194822    
   3646000   300.74831     -444089.94     -440508.53      660.63616      48.77409       66.076313    
   3647000   300.92666     -444092.12     -440508.59      667.05449      40.029101      65.900319    
   3648000   295.95409     -444033.53     -440509.21      668.49642      58.525434      65.850823    
   3649000   298.13324     -444058.84     -440508.57      671.66022      65.154449      65.84618     
   3650000   296.32378     -444037.94     -440509.21      675.56763      75.099069      65.907458    
   3651000   297.49802     -444051.94     -440509.23      683.18021      54.404946      65.831783    
   3652000   300.32693     -444085.47     -440509.07      687.11562      49.351873      65.724071    
   3653000   299.31961     -444073.38     -440508.98      693.09144      56.669814      65.665277    
   3654000   298.74475     -444065.88     -440508.32      697.55056      57.302705      65.611325    
   3655000   301.33911     -444097.16     -440508.71      702.17512      46.88991       65.491316    
   3656000   299.92449     -444080.47     -440508.87      707.18639      57.127889      65.438046    
   3657000   298.87252     -444067        -440507.93      712.00322      55.38813       65.374439    
   3658000   299.16641     -444071.16     -440508.58      713.56658      75.028541      65.435157    
   3659000   298.56829     -444063.31     -440507.86      717.29947      64.031301      65.426383    
   3660000   298.14885     -444058.31     -440507.86      723.27673      72.428144      65.469872    
   3661000   300.44548     -444086.22     -440508.41      729.64696      77.270628      65.542716    
   3662000   302.25827     -444107.56     -440508.17      733.63407      52.379337      65.461959    
   3663000   296.04818     -444033.38     -440507.93      738.13837      45.075654      65.337652    
   3664000   302.78765     -444113.75     -440508.05      744.99425      56.797927      65.285896    
   3665000   304.20473     -444131.16     -440508.58      751.29393      56.547784      65.233257    
   3666000   298.58008     -444064.09     -440508.5       755.1388       51.225355      65.149377    
   3667000   299.39347     -444074.34     -440509.07      759.46295      53.766038      65.081619    
   3668000   298.3458      -444060.66     -440507.85      765.33063      58.303748      65.041514    
   3669000   298.03357     -444057.06     -440507.98      773.73441      78.206884      65.118957    
   3670000   296.39043     -444037.53     -440508.01      779.1547       65.626495      65.121925    
   3671000   299.34213     -444073.53     -440508.86      787.00864      45.419143      65.007374    
   3672000   296.87776     -444043.59     -440508.27      794.85716      52.340981      64.934158    
   3673000   304.4239      -444133.5      -440508.32      796.71928      58.756635      64.898655    
   3674000   302.55228     -444111.75     -440508.86      801.81464      31.125516      64.705666    
   3675000   300.62054     -444088.75     -440508.86      807.59469      47.266216      64.606578    
   3676000   305.02294     -444141.31     -440509         809.48001      38.226434      64.457537    
   3677000   297.24913     -444048.62     -440508.88      812.30846      50.833799      64.381       
   3678000   300.15163     -444083.41     -440509.1       816.74946      57.135958      64.340524    
   3679000   300.74064     -444091.09     -440509.77      818.74883      52.981303      64.277418    
   3680000   306.41823     -444157.94     -440509.01      820.63916      47.054865      64.182265    
   3681000   300.03086     -444081.81     -440508.94      824.76667      48.849524      64.09802     
   3682000   294.50992     -444016.16     -440509.03      826.80441      46.081193      63.999567    
   3683000   295.91875     -444032.44     -440508.54      829.44366      45.880487      63.901094    
   3684000   305.80765     -444151.12     -440509.46      834.11819      44.387292      63.795614    
   3685000   295.11371     -444022.91     -440508.59      839.07804      57.869914      63.763755    
   3686000   302.00984     -444105.31     -440508.88      841.06935      55.679804      63.720525    
   3687000   299.58716     -444077.12     -440509.54      846.91594      52.519903      63.660948    
   3688000   303.44258     -444122.09     -440508.6       850.99196      70.799531      63.698718    
   3689000   302.14668     -444107.19     -440509.12      856.53484      67.866277      63.720653    
   3690000   300.56767     -444088.78     -440509.52      858.22055      63.770106      63.720911    
   3691000   303.92255     -444128.91     -440509.69      861.52609      68.235299      63.744424    
   3692000   301.23136     -444095.97     -440508.8       865.43787      83.06474       63.844529    
   3693000   304.57267     -444135.72     -440508.77      869.91973      81.079247      63.933368    
   3694000   305.03218     -444141.12     -440508.7       880.56271      64.972936      63.938699    
   3695000   300.80494     -444090.09     -440508.01      884.68998      67.688121      63.957829    
   3696000   302.38234     -444110.5      -440509.63      890.30841      60.848295      63.942044    
   3697000   297.80555     -444055.06     -440508.69      892.49429      68.386978      63.964493    
   3698000   295.42948     -444027.03     -440508.96      899.2792       66.335502      63.976408    
   3699000   295.74613     -444030.03     -440508.19      907.04747      86.111094      64.087081    
   3700000   293.93611     -444008.12     -440507.83      913.295        89.877697      64.215393    
   3701000   299.61463     -444075.88     -440507.96      914.8429       78.537164      64.286293    
   3702000   300.23451     -444083.09     -440507.8       917.0319       82.74445       64.37722     
   3703000   297.0815      -444045.91     -440508.16      918.94268      62.917112      64.370062    
   3704000   299.92822     -444080.72     -440509.07      925.69049      60.358755      64.350495    
   3705000   302.09702     -444105.22     -440507.75      932.2472       63.554388      64.34663     
   3706000   299.6824      -444077.22     -440508.5       940.04746      57.095241      64.3116      
   3707000   298.30283     -444060.72     -440508.43      945.8769       56.174005      64.272476    
   3708000   298.10918     -444058.44     -440508.45      949.63964      58.633119      64.245494    
   3709000   301.86769     -444102.97     -440508.23      956.46218      54.653844      64.199819    
   3710000   295.0628      -444021.94     -440508.23      958.6152       53.481502      64.149022    
   3711000   295.10597     -444022.75     -440508.53      962.48845      62.393745      64.140742    
   3712000   297.94154     -444056.44     -440508.45      967.41749      50.066484      64.074666    
   3713000   300.67043     -444089.72     -440509.23      973.73244      52.040364      64.018431    
   3714000   300.01543     -444081.91     -440509.22      979.25075      54.708011      63.975126    
   3715000   299.18659     -444071.22     -440508.4       986.15604      42.311924      63.874834    
   3716000   303.35256     -444121.5      -440509.08      994.63589      64.426973      63.877378    
   3717000   298.87412     -444067.72     -440508.63      996.35428      40.96369       63.77227     
   3718000   299.83901     -444079.78     -440509.2       1000.8088      42.75262       63.676289    
   3719000   300.87259     -444091.53     -440508.64      1004.6269      55.909217      63.640985    
   3720000   299.98683     -444080.5      -440508.16      1009.859       51.445645      63.585802    
   3721000   296.88633     -444043.78     -440508.36      1012.3775      43.572674      63.495653    
   3722000   299.38522     -444073.25     -440508.07      1016.219       44.423792      63.410129    
   3723000   302.3104      -444108.38     -440508.36      1017.4769      39.309289      63.302536    
   3724000   297.39844     -444049.5      -440507.98      1022.1796      37.363413      63.187251    
   3725000   306.45079     -444158.88     -440509.56      1027.1531      37.212506      63.072318    
   3726000   298.78187     -444067.03     -440509.04      1029.7792      42.092411      62.979896    
   3727000   299.78283     -444078.41     -440508.49      1036.5451      62.291838      62.976878    
   3728000   301.79132     -444102.16     -440508.32      1043.0829      63.379449      62.978636    
   3729000   299.4047      -444074.16     -440508.74      1047.5638      69.83367       63.00844     
   3730000   299.56641     -444075.06     -440507.72      1056.036       73.400563      63.053428    
   3731000   302.07        -444105.84     -440508.69      1057.9918      70.279228      63.084574    
   3732000   302.2594      -444107.81     -440508.41      1060.4676      74.724986      63.134532    
   3733000   299.50647     -444075.38     -440508.75      1065.4441      73.28007       63.177889    
   3734000   300.04677     -444080.78     -440507.72      1072.5507      83.27733       63.263419    
   3735000   296.92732     -444044.31     -440508.4       1074.5267      96.267532      63.403267    
   3736000   304.45584     -444134.22     -440508.66      1080.8536      82.505369      63.483866    
   3737000   296.4689      -444038.81     -440508.36      1086.3071      86.776212      63.581733    
   3738000   298.90016     -444067.25     -440507.85      1091.579       91.483788      63.698478    
   3739000   298.6815      -444065.34     -440508.54      1093.4135      80.819981      63.769818    
   3740000   301.89354     -444103.5      -440508.45      1095.5279      67.663208      63.785973    
   3741000   296.58016     -444039.78     -440508.01      1099.7012      61.32547       63.775806    
   3742000   298.03121     -444057.53     -440508.48      1104.0376      52.690222      63.730186    
   3743000   302.39238     -444109        -440508.01      1106.4995      65.603181      63.737862    
   3744000   304.56459     -444135.34     -440508.49      1114.8624      60.512162      63.724696    
   3745000   300.28418     -444084.28     -440508.4       1115.9911      69.113354      63.746601    
   3746000   298.88471     -444067.19     -440507.97      1117.7301      70.273919      63.773028    
   3747000   304.98237     -444140.69     -440508.85      1124.5147      60.384259      63.759363    
   3748000   298.91573     -444067.91     -440508.32      1130.0674      76.982563      63.812469    
   3749000   302.28667     -444108.22     -440508.49      1137.6882      68.598096      63.831611    
   3750000   297.77648     -444054.44     -440508.42      1139.0363      68.587484      63.850559    
   3751000   294.76479     -444017.97     -440507.81      1150.4199      68.34742       63.868403    
   3752000   298.35915     -444060.5      -440507.54      1157.5059      68.891045      63.888256    
   3753000   302.16841     -444106.31     -440507.99      1163.1949      55.23607       63.854192    
   3754000   295.098       -444022.41     -440508.28      1169.7403      67.028238      63.866639    
   3755000   298.766       -444066.31     -440508.51      1171.4555      63.167412      63.863908    
   3756000   301.24615     -444095.91     -440508.57      1173.402       68.761638      63.882965    
   3757000   298.57777     -444064.25     -440508.69      1177.3345      73.356357      63.919684    
   3758000   301.52953     -444098.53     -440507.82      1185.6278      57.969949      63.896712    
   3759000   302.81237     -444114.81     -440508.82      1187.6654      70.86804       63.923525    
   3760000   299.12691     -444069.81     -440507.71      1195.2557      52.475482      63.879662    
   3761000   301.07623     -444093.22     -440507.9       1199.3681      65.556816      63.886064    
   3762000   298.21821     -444058.97     -440507.69      1200.9141      85.22153       63.967187    
   3763000   296.93146     -444043.78     -440507.82      1205.7378      74.787031      64.008172    
   3764000   298.19117     -444059.03     -440508.07      1212.5293      61.475152      63.998613    
   3765000   297.33901     -444049        -440508.19      1214.012       80.883816      64.062091    
   3766000   299.5676      -444075.78     -440508.43      1216.0747      65.717553      64.068291    
   3767000   302.17679     -444106.47     -440508.05      1220.2433      74.520573      64.107292    
   3768000   300.55422     -444088.03     -440508.93      1223.9155      83.650772      64.179945    
   3769000   298.12698     -444058.56     -440508.37      1229.8177      75.300879      64.221133    
   3770000   298.62698     -444064.47     -440508.32      1235.2195      70.635452      64.244803    
   3771000   298.73548     -444066.06     -440508.62      1240.1961      75.916718      64.287714    
   3772000   299.91489     -444079.41     -440507.92      1244.8469      65.420539      64.291864    
   3773000   295.65025     -444028.22     -440507.52      1247.1792      68.335662      64.306622    
   3774000   307.19154     -444167.44     -440509.3       1251.177       66.626887      64.315059    
   3775000   298.99154     -444069.44     -440508.95      1255.8424      61.836381      64.306079    
   3776000   299.62759     -444076.53     -440508.47      1259.5182      61.022139      64.294223    
   3777000   297.05494     -444045.41     -440507.98      1263.8731      67.380414      64.305325    
   3778000   295.38353     -444025.81     -440508.29      1268.3178      63.942803      64.304025    
   3779000   298.70696     -444065.53     -440508.43      1273.5125      69.681521      64.323231    
   3780000   294.76839     -444018.41     -440508.21      1279.3872      80.115179      64.37943     
   3781000   297.92508     -444055.62     -440507.83      1280.9376      75.25942       64.418011    
   3782000   301.73174     -444101.12     -440508         1286.1984      72.976513      64.448253    
   3783000   301.89063     -444103.44     -440508.42      1290.4485      74.649879      64.484174    
   3784000   298.39094     -444061.38     -440508.04      1298.7722      89.610617      64.572337    
   3785000   300.34694     -444085.06     -440508.43      1306.1029      84.182562      64.640905    
   3786000   298.15267     -444059.19     -440508.69      1308.3184      74.517966      64.675319    
   3787000   302.15253     -444106.56     -440508.43      1314.7376      66.423585      64.68139     
   3788000   297.68524     -444053.16     -440508.22      1316.5482      77.264947      64.724932    
   3789000   297.17083     -444047.19     -440508.38      1320.5395      65.581176      64.727884    
   3790000   301.54404     -444098.84     -440507.96      1326.1784      76.455253      64.768184    
   3791000   297.25554     -444046.94     -440507.12      1330.4943      45.500328      64.702199    
   3792000   301.1509      -444095.19     -440508.98      1332.1594      40.311879      64.618955    
   3793000   303.12761     -444117.75     -440508         1335.2889      51.469872      64.57423     
   3794000   300.57102     -444088.09     -440508.79      1340.0433      55.024873      64.54186     
   3795000   299.24006     -444071.97     -440508.52      1344.0501      56.730906      64.515471    
   3796000   297.4592      -444050.03     -440507.79      1346.1739      53.550968      64.478554    
   3797000   300.69826     -444088.66     -440507.84      1351.5983      27.066696      64.353011    
   3798000   300.86922     -444091.31     -440508.46      1355.5639      54.180449      64.318989    
   3799000   300.88067     -444090.38     -440507.39      1364.0473      47.92642       64.264347    
   3800000   299.96943     -444079.59     -440507.46      1368.4659      54.941727      64.233375    
   3801000   298.64639     -444063.97     -440507.59      1373.2622      57.626113      64.211496    
   3802000   298.55484     -444063.03     -440507.74      1377.9121      57.927372      64.190757    
   3803000   299.64378     -444076.12     -440507.87      1379.5738      70.930009      64.212925    
   3804000   302.08379     -444105.66     -440508.34      1381.9111      41.955575      64.13995     
   3805000   300.10737     -444081.53     -440507.75      1386.7024      34.520177      64.043154    
   3806000   300.91685     -444091.62     -440508.21      1391.4551      48.8513        63.993669    
   3807000   298.00792     -444058.19     -440509.41      1395.1954      36.529791      63.9045      
   3808000   298.5745      -444062.62     -440507.1       1397.0112      45.095785      63.843631    
   3809000   302.60083     -444112        -440508.53      1402.0613      38.64009       63.762329    
   3810000   300.48817     -444086.47     -440508.15      1407.415       53.450589      63.729172    
   3811000   303.89968     -444127.78     -440508.84      1415.1813      56.593599      63.706302    
   3812000   297.21645     -444046.97     -440507.62      1418.6607      61.593615      63.699552    
   3813000   303.55223     -444123.31     -440508.51      1424.1081      57.225748      63.678935    
   3814000   299.97549     -444079.28     -440507.07      1433.8232      57.19964       63.658366    
   3815000   304.00495     -444128.16     -440507.96      1439.7826      57.068639      63.637512    
   3816000   302.26787     -444108        -440508.49      1446.7035      55.534985      63.611952    
   3817000   298.96843     -444068.09     -440507.88      1450.8408      72.673164      63.640446    
   3818000   295.91474     -444031.88     -440508.02      1457.0091      70.475763      63.661874    
   3819000   306.36266     -444156.56     -440508.29      1458.448       75.770944      63.699715    
   3820000   302.29205     -444107.94     -440508.14      1460.3478      73.093322      63.728978    
   3821000   296.94119     -444043.62     -440507.55      1464.79        58.938732      63.714102    
   3822000   300.78686     -444090.19     -440508.32      1471.4422      69.239602      63.731208    
   3823000   299.39826     -444073        -440507.66      1473.509       71.928248      63.756508    
   3824000   300.55237     -444087.34     -440508.27      1477.9609      65.756345      63.762661    
   3825000   298.83616     -444066.56     -440507.92      1480.0887      59.546808      63.749729    
   3826000   299.13316     -444069.28     -440507.1       1481.8743      69.972637      63.76876     
   3827000   294.86804     -444019.5      -440508.11      1486.5026      63.479435      63.767877    
   3828000   303.68184     -444124.75     -440508.4       1493.9198      57.724631      63.749509    
   3829000   299.12931     -444070.22     -440508.09      1502.1941      65.593497      63.755097    
   3830000   297.3222      -444048.25     -440507.64      1504.2325      66.495017      63.763374    
   3831000   296.15872     -444035.03     -440508.27      1511.7572      58.086532      63.746276    
   3832000   297.04299     -444045.03     -440507.74      1515.8191      57.971718      63.728934    
   3833000   302.15109     -444106.5      -440508.38      1524.3169      54.584153      63.701555    
   3834000   293.37127     -444000.78     -440507.22      1530.1406      67.085098      63.711655    
   3835000   296.3295      -444035.78     -440506.99      1534.7991      67.012696      63.72148     
   3836000   301.25094     -444095.47     -440508.07      1540.2895      63.073165      63.719556    
   3837000   298.05809     -444057.22     -440507.84      1541.6939      56.980428      63.699618    
   3838000   301.72014     -444100.66     -440507.67      1547.0107      63.205259      63.698159    
   3839000   300.02154     -444081.38     -440508.62      1551.5102      61.970245      63.693077    
   3840000   303.94783     -444127.44     -440507.92      1555.6248      58.516163      63.677896    
   3841000   299.85617     -444078.66     -440507.87      1559.7361      51.08032       63.641061    
   3842000   300.83217     -444090.28     -440507.87      1565.7303      71.224374      63.663169    
   3843000   300.18042     -444082.88     -440508.23      1574.3336      80.471566      63.712031    
   3844000   296.16724     -444034.34     -440507.48      1579.5042      61.83618       63.706594    
   3845000   297.63189     -444052.66     -440508.36      1583.332       89.705409      63.781735    
   3846000   301.74751     -444101.19     -440507.88      1585.4029      109.89848      63.914636    
   3847000   301.24391     -444094.84     -440507.53      1591.963       99.949992      64.018186    
   3848000   294.83105     -444019.19     -440508.24      1600.6672      76.243649      64.053216    
   3849000   305.08066     -444142.09     -440509.09      1602.9685      65.883628      64.058446    
   3850000   301.62466     -444099.84     -440508         1609.8835      69.322592      64.073443    
   3851000   298.94058     -444068.38     -440508.49      1614.3944      58.36593       64.057229    
   3852000   301.93304     -444103.06     -440507.54      1618.1688      74.709608      64.087405    
   3853000   302.54213     -444110.56     -440507.79      1626.6079      82.533609      64.139513    
   3854000   302.87602     -444115.03     -440508.28      1630.4838      83.673388      64.194538    
   3855000   300.28608     -444083.97     -440508.06      1634.5477      77.36647       64.231538    
   3856000   300.87008     -444090.94     -440508.08      1636.339       75.175205      64.262193    
   3857000   300.75092     -444090.16     -440508.71      1644.2397      68.25526       64.273347    
   3858000   300.12753     -444082.12     -440508.11      1648.6656      69.937669      64.289125    
   3859000   296.99673     -444044.94     -440508.2       1655.4183      65.448347      64.292345    
   3860000   296.34356     -444036.62     -440507.67      1660.7355      68.315616      64.303489    
   3861000   301.74396     -444100.81     -440507.54      1666.9102      57.862671      64.285697    
   3862000   303.34782     -444119.97     -440507.6       1671.4964      44.101304      64.230093    
   3863000   298.95785     -444067.91     -440507.82      1676.8556      62.552605      64.225484    
   3864000   298.88899     -444066.94     -440507.67      1682.2786      64.013981      64.224905    
   3865000   299.96883     -444079.31     -440507.18      1684.2983      48.686659      64.182451    
   3866000   300.5869      -444087.19     -440507.7       1691.9671      50.359401      64.144786    
   3867000   302.14082     -444106.06     -440508.07      1697.6436      55.269766      64.120669    
   3868000   300.18996     -444082.25     -440507.49      1704.6443      57.465277      64.102632    
   3869000   305.15578     -444142.62     -440508.73      1712.1402      66.952058      64.110334    
   3870000   299.32954     -444072.5      -440507.98      1714.5826      55.183036      64.086271    
   3871000   302.38276     -444107.59     -440506.72      1718.3867      59.5448        64.074062    
   3872000   306.40239     -444157.03     -440508.29      1728.6745      65.685947      64.078384    
   3873000   300.78047     -444089.47     -440507.67      1734.7606      75.498654      64.108919    
   3874000   300.44961     -444085.38     -440507.52      1739.1291      72.748322      64.131958    
   3875000   295.23592     -444024.38     -440508.61      1741.3518      61.663242      64.125392    
   3876000   301.02856     -444093.12     -440508.38      1748.3859      56.788432      64.105931    
   3877000   300.49294     -444086.12     -440507.75      1753.9217      56.617429      64.08612     
   3878000   301.61513     -444099.84     -440508.11      1755.8797      57.782999      64.069489    
   3879000   299.1961      -444070.88     -440507.95      1760.8197      58.814415      64.05566     
   3880000   299.4997      -444074.22     -440507.68      1762.0821      64.342629      64.056413    
   3881000   297.99793     -444055.53     -440506.87      1769.6529      69.072231      64.069543    
   3882000   295.49539     -444026.22     -440507.36      1776.3603      65.676236      64.073738    
   3883000   299.66395     -444076.91     -440508.41      1781.9214      64.536413      64.074943    
   3884000   301.09393     -444092.91     -440507.38      1786.6068      61.26414       64.067642    
   3885000   298.98733     -444068.12     -440507.68      1788.7353      47.777381      64.02544     
   3886000   304.68091     -444135.91     -440507.66      1797.6148      60.420091      64.016124    
   3887000   299.46665     -444073.91     -440507.76      1803.0424      59.989326      64.005745    
   3888000   300.49082     -444085.94     -440507.59      1806.931       59.545066      63.994278    
   3889000   305.20062     -444142.38     -440507.94      1811.5364      51.639098      63.962598    
   3890000   296.77802     -444041.97     -440507.84      1816.3711      49.075583      63.924524    
   3891000   290.68509     -443968.66     -440507.08      1821.888       57.491039      63.908112    
   3892000   300.03119     -444081.31     -440508.44      1825.8868      77.034403      63.941512    
   3893000   292.4433      -443989.56     -440507.05      1828.3673      60.474385      63.932712    
   3894000   300.70554     -444088        -440507.1       1832.4358      47.694565      63.891603    
   3895000   299.2023      -444070        -440507         1834.6968      60.918848      63.884096    
   3896000   298.1252      -444057.06     -440506.89      1838.0212      60.941807      63.876685    
   3897000   298.1614      -444058.44     -440507.83      1844.3865      61.055107      63.869596    
   3898000   296.8477      -444042.97     -440508.01      1849.0397      52.190193      63.840324    
   3899000   298.31868     -444060.53     -440508.05      1855.7506      69.443153      63.854331    
   3900000   302.44114     -444108.75     -440507.18      1861.7259      64.189217      63.855166    
   3901000   296.32065     -444036.09     -440507.41      1866.5044      51.630032      63.824755    
   3902000   300.3643      -444084.66     -440507.82      1868.5145      45.852154      63.780158    
   3903000   295.63274     -444028.41     -440507.91      1872.863       49.649752      63.745182    
   3904000   297.72321     -444053.59     -440508.21      1878.0124      63.632718      63.744904    
   3905000   300.00435     -444079.91     -440507.35      1886.1544      54.674592      63.722564    
   3906000   304.83942     -444138        -440507.87      1888.1785      55.893969      63.703329    
   3907000   298.87615     -444067.22     -440508.1       1892.4921      54.903332      63.68176     
   3908000   304.79296     -444137.44     -440507.86      1897.1042      72.391491      63.703055    
   3909000   297.81495     -444053.84     -440507.36      1902.2091      77.063155      63.735641    
   3910000   295.72617     -444029        -440507.39      1906.6977      83.547111      63.783844    
   3911000   300.65155     -444087.78     -440507.52      1909.8588      86.327829      63.838562    
   3912000   300.01336     -444080        -440507.34      1912.078       67.597982      63.847665    
   3913000   297.30675     -444048.31     -440507.88      1916.5831      61.311385      63.841539    
   3914000   296.5287      -444038.56     -440507.4       1918.303       79.512412      63.8793      
   3915000   298.34184     -444060.91     -440508.15      1923.3518      86.781728      63.934354    
   3916000   297.90717     -444055.34     -440507.77      1931.5829      74.0825        63.95869     
   3917000   300.2774      -444083.62     -440507.82      1937.3252      83.378595      64.005149    
   3918000   301.23789     -444095.91     -440508.66      1941.7128      78.351568      64.039389    
   3919000   303.5665      -444122.81     -440507.84      1945.4321      73.129929      64.061033    
   3920000   303.10835     -444117.91     -440508.39      1952.5344      80.76355       64.100706    
   3921000   299.48899     -444074.5      -440508.08      1956.707       75.013928      64.126567    
   3922000   302.57755     -444111.53     -440508.34      1963.6871      68.578384      64.137091    
   3923000   300.2887      -444083.22     -440507.28      1968.5354      60.428088      64.128344    
   3924000   303.73556     -444124.69     -440507.7       1973.7192      66.549201      64.13404     
   3925000   298.81341     -444066.06     -440507.69      1975.1234      73.451984      64.155913    
   3926000   303.2552      -444118.72     -440507.45      1979.2907      70.309906      64.170325    
   3927000   301.8177      -444101.81     -440507.67      1987.2726      58.049441      64.156024    
   3928000   303.64141     -444123.91     -440508.04      1988.8962      86.232317      64.207484    
   3929000   297.15025     -444044.94     -440506.37      1990.7292      78.708512      64.241207    
   3930000   292.38043     -443989.06     -440507.3       1994.8116      66.945002      64.247481    
   3931000   304.08766     -444129.94     -440508.76      1999.926       72.883679      64.267472    
   3932000   303.09388     -444117.47     -440508.12      2008.0648      72.569492      64.286645    
   3933000   300.2546      -444083.06     -440507.53      2013.1102      78.997845      64.320542    
   3934000   300.17204     -444082.03     -440507.48      2018.5182      70.81263       64.335466    
   3935000   298.33952     -444060.25     -440507.52      2022.7504      81.120563      64.373964    
   3936000   295.45779     -444026.5      -440508.09      2028.9637      73.926307      64.395823    
   3937000   296.42632     -444038.25     -440508.31      2033.202       66.34354       64.40027     
   3938000   297.91724     -444054.97     -440507.27      2038.6105      73.31383       64.420574    
   3939000   301.09447     -444093.25     -440507.72      2042.4515      58.018931      64.406025    
   3940000   296.84312     -444042.22     -440507.31      2046.6726      57.70904       64.390839    
   3941000   295.79502     -444029.72     -440507.29      2048.0965      50.135109      64.358586    
   3942000   300.66933     -444087.5      -440507.03      2055.2215      53.166835      64.333323    
   3943000   298.77441     -444066.28     -440508.38      2059.2233      50.723592      64.30267     
   3944000   298.8994      -444066.53     -440507.14      2065.8149      57.944352      64.288382    
   3945000   296.58479     -444039.34     -440507.51      2070.4187      47.210435      64.25009     
   3946000   304.6567      -444136.59     -440508.64      2074.922       43.483782      64.203633    
   3947000   302.09284     -444104.88     -440507.45      2076.9997      56.577666      64.186611    
   3948000   298.08531     -444056.69     -440506.99      2084.1077      58.549194      64.174056    
   3949000   297.2751      -444047.16     -440507.1       2088.7161      61.305989      64.167682    
   3950000   303.66132     -444123.94     -440507.84      2090.8474      66.178086      64.17214     
   3951000   299.7131      -444076.41     -440507.32      2096.1668      53.64706       64.148854    
   3952000   299.02701     -444068.62     -440507.71      2097.7177      44.664394      64.105842    
   3953000   296.56874     -444039.41     -440507.77      2099.7132      64.134851      64.105906    
   3954000   299.84534     -444076.94     -440506.28      2106.6445      63.999196      64.105672    
   3955000   297.89743     -444055.66     -440508.19      2112.0317      60.938843      64.098727    
   3956000   303.00962     -444116.28     -440507.94      2116.8597      53.307137      64.075113    
   3957000   299.62916     -444075.91     -440507.82      2123.7469      60.460462      64.06722     
   3958000   297.65279     -444051.72     -440507.17      2131.4012      66.283132      64.072048    
   3959000   301.77591     -444101.31     -440507.66      2137.8291      62.502215      64.068635    
   3960000   302.62359     -444112.25     -440508.51      2142.3249      59.090283      64.057836    
   3961000   300.26124     -444083.88     -440508.26      2144.3915      51.556672      64.030778    
   3962000   302.4726      -444109.66     -440507.71      2150.0913      40.460669      63.97987     
   3963000   299.80182     -444077.88     -440507.73      2151.6748      56.605457      63.963977    
   3964000   295.64213     -444027.81     -440507.21      2156.2997      50.012908      63.933975    
   3965000   301.12157     -444093.38     -440507.52      2161.4164      40.039687      63.8827      
   3966000   295.01115     -444020.97     -440507.88      2165.1602      62.299855      63.87931     
   3967000   300.07771     -444081.31     -440507.89      2169.5412      68.91958       63.89008     
   3968000   300.11373     -444080.47     -440506.61      2171.7838      50.547443      63.861631    
   3969000   296.66551     -444040.84     -440508.05      2173.1649      61.316651      63.856216    
   3970000   302.23682     -444106.09     -440506.96      2175.5181      45.166723      63.816536    
   3971000   294.02832     -444007.72     -440506.33      2179.5088      45.136068      63.776958    
   3972000   300.57384     -444086.78     -440507.45      2181.2313      51.403615      63.750799    
   3973000   301.32684     -444096.47     -440508.17      2187.9168      53.072995      63.728272    
   3974000   303.13767     -444118        -440508.13      2192.7752      51.140846      63.701772    
   3975000   296.45656     -444037.34     -440507.04      2197.7233      47.921441      63.66862     
   3976000   299.48118     -444074.06     -440507.74      2199.8612      52.528073      63.645265    
   3977000   293.36628     -444000.44     -440506.93      2206.7874      60.065228      63.637775    
   3978000   299.21734     -444069.75     -440506.57      2211.8686      46.473758      63.601942    
   3979000   300.23327     -444083.69     -440508.41      2216.2621      51.493206      63.576716    
   3980000   296.97232     -444044.06     -440507.62      2220.4259      53.161688      63.555063    
   3981000   294.56195     -444014.94     -440507.19      2227.3524      64.175252      63.556349    
   3982000   300.48805     -444086.69     -440508.37      2231.5838      66.744433      63.56295     
   3983000   302.12703     -444104.88     -440507.04      2233.0328      58.72266       63.552949    
   3984000   302.34619     -444109.22     -440508.78      2241.9345      65.63143       63.557235    
   3985000   303.18014     -444118.78     -440508.41      2249.1177      76.27357       63.5834      
   3986000   304.15255     -444130.81     -440508.86      2253.5129      70.311222      63.597215    
   3987000   291.43019     -443977.88     -440507.43      2258.4356      67.350142      63.604905    
   3988000   301.09108     -444093.31     -440507.82      2266.3755      91.031383      63.660992    
   3989000   295.79013     -444030.03     -440507.66      2270.2386      81.159577      63.696704    
   3990000   298.46978     -444061.78     -440507.5       2274.8199      75.060751      63.719848    
   3991000   301.85701     -444101.81     -440507.2       2276.6176      79.02985       63.750966    
   3992000   300.1313      -444082.16     -440508.09      2284.109       69.732502      63.763099    
   3993000   302.05334     -444104.78     -440507.83      2287.9452      84.075925      63.804218    
   3994000   297.60164     -444051.94     -440508         2293.7005      69.414017      63.815551    
   3995000   304.13504     -444129.53     -440507.79      2297.9149      82.617538      63.853459    
   3996000   298.98198     -444067.97     -440507.59      2302.2263      74.415165      63.874709    
   3997000   304.35155     -444131.56     -440507.24      2303.9657      72.352545      63.891733    
   3998000   295.56173     -444027.31     -440507.66      2311.2734      76.718685      63.917439    
   3999000   295.60073     -444027.09     -440506.98      2315.8678      81.679079      63.952962    
   4000000   298.61513     -444063.97     -440507.96      2323.7445      63.081386      63.951222    
Loop time of 12966.5 on 1 procs for 500000 steps with 3996 atoms

Performance: 1.666 ns/day, 14.407 hours/ns, 38.561 timesteps/s, 154.089 katom-step/s
99.9% CPU use with 1 MPI tasks x 1 OpenMP threads

MPI task timing breakdown:
Section |  min time  |  avg time  |  max time  |%varavg| %total
---------------------------------------------------------------
Pair    | 12397      | 12397      | 12397      |   0.0 | 95.61
Bond    | 0.16896    | 0.16896    | 0.16896    |   0.0 |  0.00
Neigh   | 17.253     | 17.253     | 17.253     |   0.0 |  0.13
Comm    | 11.332     | 11.332     | 11.332     |   0.0 |  0.09
Output  | 0.12151    | 0.12151    | 0.12151    |   0.0 |  0.00
Modify  | 509.76     | 509.76     | 509.76     |   0.0 |  3.93
Other   |            | 30.68      |            |       |  0.24

Nlocal:           3996 ave        3996 max        3996 min
Histogram: 1 0 0 0 0 0 0 0 0 0
Nghost:          16435 ave       16435 max       16435 min
Histogram: 1 0 0 0 0 0 0 0 0 0
Neighs:              0 ave           0 max           0 min
Histogram: 1 0 0 0 0 0 0 0 0 0
FullNghs:  3.16367e+06 ave 3.16367e+06 max 3.16367e+06 min
Histogram: 1 0 0 0 0 0 0 0 0 0

Total # of neighbors = 3163668
Ave neighs/atom = 791.70871
Ave special neighs/atom = 0
Neighbor list builds = 5593
Dangerous builds = 0
Total wall time: 3:36:07
