LAMMPS (22 Jul 2025)
KOKKOS mode with Kokkos version 4.6.2 is enabled
  will use up to 1 GPU(s) per node
  using 1 OpenMP thread(s) per MPI task
package kokkos
read_restart    kappa_restart_6
Reading restart file ...
  restart file = 22 Jul 2025, LAMMPS = 22 Jul 2025
  restoring atom style full/kk from restart
  orthogonal box = (0.71446759 0.71446759 0.71446759) to (36.662232 36.662232 36.662232)
  1 by 1 by 1 MPI processor grid
  pair style bamboo stores no restart info
  3996 atoms
Finding 1-2 1-3 1-4 neighbors ...
  special bond factors lj:    0        0        0       
  special bond factors coul:  0        0        0       
     0 = max # of 1-2 neighbors
     0 = max # of 1-3 neighbors
     0 = max # of 1-4 neighbors
     1 = max # of special neighbors
  special bonds CPU = 0.001 seconds
  read_restart CPU = 0.052 seconds

pair_style      bamboo 5.0 5.0 10.0 1
pair_coeff /mnt/bn/ai4s-hl/bamboo/bamboo_finetune/thermal-no-all-13-ft-03/k0r0/density_r2/k0r0-density_r2-0/checkpoints/finetune.pt H C O

neighbor        3.0 bin
neigh_modify	delay 0 check yes

compute         ke all ke/atom
variable        kB equal 0.0019872041       # Boltzmann const. (kcal/mol·K)
variable        temp atom c_ke/(1.5*${kB})  # per-atom temperature (K)
variable        temp atom c_ke/(1.5*0.0019872041)  

fix             1 all nve

compute         layers all chunk/atom bin/1d z lower 0.05 units reduced
fix             2 all ave/chunk 10 100 1000 layers v_temp file profile7.mp
fix             3 all thermal/conductivity 500 z 20

variable        tdiff equal f_2[11][3]-f_2[1][3]
thermo_style    custom step temp epair etotal f_3 v_tdiff
thermo_modify   colname f_3 E_delta colname v_tdiff dTemp_step

fix             ave all ave/time 1 1 1000 v_tdiff ave running
thermo_style    custom step temp epair etotal f_3 v_tdiff f_ave
WARNING: New thermo_style command, previous thermo_modify settings will be lost (src/code.byted.org/data/lammps_bamboo/src/output.cpp:912)
thermo_modify   colname f_3 E_delta colname v_tdiff dTemp_step colname f_ave dTemp

thermo          1000
run             500000
Unused restart file peratom fix info:
  fix style: STORE/ATOM, fix ID: layers_COMPUTE_STORE
Neighbor list info ...
  update: every = 1 steps, delay = 0 steps, check = yes
  max neighbors/atom: 2000, page size: 100000
  master list distance cutoff = 13
  ghost atom cutoff = 13
  binsize = 13, bins = 3 3 3
  1 neighbor lists, perpetual/occasional/extra = 1 0 0
  (1) pair bamboo/kk, perpetual
      attributes: full, newton off, kokkos_device
      pair build: full/bin/kk/device
      stencil: full/bin/3d
      bin: kk/device
WARNING: Fix STORE/ATOM not compatible with sending data in Kokkos communication (src/code.byted.org/data/lammps_bamboo/src/KOKKOS/comm_kokkos.cpp:766)
WARNING: Fix with atom-based arrays not compatible with sending data in Kokkos communication, switching to classic exchange/border communication (src/code.byted.org/data/lammps_bamboo/src/KOKKOS/comm_kokkos.cpp:779)
WARNING: Fix STORE/ATOM not compatible with Kokkos sorting on device (src/code.byted.org/data/lammps_bamboo/src/KOKKOS/atom_kokkos.cpp:212)
WARNING: Fix with atom-based arrays not compatible with Kokkos sorting on device, switching to classic host sorting (src/code.byted.org/data/lammps_bamboo/src/KOKKOS/atom_kokkos.cpp:218)
Per MPI rank memory allocation (min/avg/max) = 8.71 | 8.71 | 8.71 Mbytes
   Step          Temp          E_pair         TotEng        E_delta       dTemp_step       dTemp     
   3000000   302.33875     -444111.97     -440511.62      0              0              0            
   3001000   301.56495     -444101.94     -440510.8       4.1520663      83.972466      41.986233    
   3002000   293.59151     -444006.53     -440510.34      9.4361403      75.649172      53.207213    
   3003000   298.8043      -444069.62     -440511.36      12.87376       54.731114      53.588188    
   3004000   302.19802     -444109.81     -440511.14      14.727395      66.211973      56.112945    
   3005000   304.53901     -444139.09     -440512.54      18.895156      78.084468      59.774866    
   3006000   303.3222      -444124.19     -440512.12      23.69941       80.146216      62.685059    
   3007000   296.8968      -444046.66     -440511.11      28.125356      73.665152      64.05757     
   3008000   299.37311     -444075.91     -440510.87      33.062832      78.029659      65.610025    
   3009000   300.27394     -444086.84     -440511.08      35.227151      70.935549      66.142577    
   3010000   298.67958     -444068.28     -440511.5       40.379026      85.37642       67.891108    
   3011000   298.77956     -444068.84     -440510.88      45.382532      68.859745      67.971828    
   3012000   300.62043     -444090.38     -440510.49      54.150329      57.345341      67.154406    
   3013000   297.15164     -444049.59     -440511.01      60.043038      55.148663      66.296853    
   3014000   306.07724     -444157.34     -440512.47      65.764565      66.782992      66.329262    
   3015000   299.55691     -444078.56     -440511.34      67.769756      55.101611      65.627534    
   3016000   295.37864     -444027.72     -440510.25      69.617739      58.91969       65.232955    
   3017000   297.05326     -444048.19     -440510.78      71.514659      50.491368      64.413978    
   3018000   299.8667      -444082.28     -440511.37      75.917527      61.627063      64.267298    
   3019000   301.95888     -444106.91     -440511.08      83.752129      54.432806      63.775573    
   3020000   299.89176     -444081.91     -440510.69      86.13489       50.424489      63.139808    
   3021000   304.78609     -444140.78     -440511.29      90.746112      41.067317      62.136512    
   3022000   303.77119     -444128.38     -440510.97      94.83887       46.406352      61.452592    
   3023000   296.19211     -444038.44     -440511.28      100.48251      40.787014      60.591527    
   3024000   300.7074      -444092.47     -440511.54      101.77522      49.881711      60.163134    
   3025000   300.80197     -444093.19     -440511.14      106.69744      54.058951      59.928358    
   3026000   297.67057     -444056.72     -440511.96      109.18917      57.576941      59.841268    
   3027000   300.37127     -444087.88     -440510.95      113.41641      50.196662      59.496818    
   3028000   303.37632     -444124.12     -440511.42      120.50004      53.390549      59.286257    
   3029000   296.41253     -444040.81     -440511.03      125.535        47.500466      58.893397    
   3030000   294.53566     -444018.62     -440511.2       131.66915      56.89785       58.829025    
   3031000   297.94911     -444059.75     -440511.67      132.98755      62.98521       58.958906    
   3032000   304.71939     -444139.88     -440511.17      141.31595      49.180571      58.662592    
   3033000   301.31721     -444099.88     -440511.69      145.51864      50.869637      58.433388    
   3034000   297.0725      -444047.97     -440510.33      149.57776      52.631703      58.267625    
   3035000   294.68617     -444019.53     -440510.31      154.89714      48.712722      58.002211    
   3036000   297.91607     -444058.16     -440510.47      160.45021      40.715476      57.535002    
   3037000   303.11746     -444121.12     -440511.5       164.61446      33.58566       56.904757    
   3038000   299.373       -444076.06     -440511.03      168.55866      45.701354      56.61749     
   3039000   295.69722     -444031.31     -440510.05      175.53544      61.438791      56.738022    
   3040000   299.96009     -444082.66     -440510.63      182.56003      69.349388      57.045617    
   3041000   299.19798     -444074.41     -440511.46      186.36521      68.616407      57.321112    
   3042000   296.98937     -444047.44     -440510.79      190.22767      66.734139      57.540019    
   3043000   298.63111     -444067.19     -440510.99      195.46017      67.250083      57.760703    
   3044000   302.56514     -444114.66     -440511.61      199.75957      58.176707      57.769947    
   3045000   303.38456     -444124.34     -440511.54      205.03139      70.664541      58.050264    
   3046000   296.77988     -444044.53     -440510.38      213.00885      70.920249      58.324094    
   3047000   298.51201     -444066.09     -440511.31      221.13414      87.638615      58.934813    
   3048000   297.09597     -444048.84     -440510.93      222.88371      81.929859      59.4041      
   3049000   297.99137     -444059.53     -440510.95      224.35095      82.408235      59.864182    
   3050000   297.40308     -444052.03     -440510.46      227.86467      82.537719      60.308761    
   3051000   295.76831     -444032.47     -440510.36      232.25299      57.158889      60.248187    
   3052000   302.24391     -444110.62     -440511.4       236.30675      49.610475      60.047475    
   3053000   297.8437      -444057.88     -440511.05      241.56886      48.021303      59.824769    
   3054000   296.1489      -444038.25     -440511.61      245.44942      50.647463      59.657908    
   3055000   296.96958     -444046.97     -440510.56      252.10874      67.016153      59.789306    
   3056000   302.21845     -444110.47     -440511.55      257.97773      66.946305      59.914867    
   3057000   302.06836     -444108.09     -440510.96      262.15327      56.739265      59.860115    
   3058000   296.17917     -444037.28     -440510.28      269.57218      51.608719      59.720261    
   3059000   300.34845     -444087.56     -440510.91      276.10629      65.825008      59.822007    
   3060000   302.54441     -444113.84     -440511.04      280.47789      86.987276      60.267339    
   3061000   300.64793     -444091.47     -440511.25      284.74883      84.619925      60.660123    
   3062000   299.01907     -444071.59     -440510.77      289.23782      75.466918      60.895151    
   3063000   297.67536     -444056.16     -440511.34      293.33154      74.886592      61.113768    
   3064000   296.94865     -444047.41     -440511.24      301.36817      68.305625      61.224412    
   3065000   301.07263     -444096.69     -440511.41      308.63086      68.409605      61.333278    
   3066000   298.04292     -444060.94     -440511.74      313.0921       52.721053      61.204737    
   3067000   299.15984     -444072.91     -440510.41      318.47174      65.058771      61.261414    
   3068000   296.90286     -444046.78     -440511.16      325.27523      76.114897      61.476682    
   3069000   299.69832     -444081.25     -440512.34      329.26744      79.299517      61.731294    
   3070000   301.98432     -444107.25     -440511.12      332.00442      68.694664      61.82937     
   3071000   295.62056     -444030.97     -440510.62      336.62591      73.43929       61.990619    
   3072000   303.22247     -444122.12     -440511.25      341.21631      76.757043      62.192899    
   3073000   304.26338     -444134.81     -440511.54      343.3591       65.360122      62.235699    
   3074000   303.65877     -444127.31     -440511.24      350.86243      74.958205      62.405332    
   3075000   302.53072     -444114.09     -440511.46      354.99248      85.006978      62.702722    
   3076000   301.30481     -444099        -440510.96      357.17673      81.017567      62.940577    
   3077000   298.62662     -444066.56     -440510.42      364.19693      90.019283      63.28774     
   3078000   295.81253     -444033.88     -440511.24      369.75156      83.657572      63.545586    
   3079000   297.45772     -444053.5      -440511.27      374.36928      73.593557      63.671186    
   3080000   301.35841     -444100.09     -440511.42      382.33347      83.159438      63.911782    
   3081000   298.47496     -444064.78     -440510.44      384.08799      90.061785      64.230684    
   3082000   299.29705     -444074.38     -440510.25      388.24454      80.771159      64.429967    
   3083000   294.5214      -444017.12     -440509.87      395.39107      76.575902      64.574561    
   3084000   295.28637     -444026.59     -440510.22      397.70318      83.109026      64.792614    
   3085000   300.11427     -444085.12     -440511.26      401.86093      80.663334      64.977157    
   3086000   293.93222     -444010.97     -440510.73      404.0912       75.604347      65.099309    
   3087000   299.09005     -444072.31     -440510.65      412.12981      74.605677      65.207336    
   3088000   302.40529     -444112.41     -440511.26      419.47409      88.043869      65.463926    
   3089000   297.52986     -444053.66     -440510.57      423.55965      86.051591      65.692678    
   3090000   301.01901     -444095.09     -440510.46      427.87988      92.554792      65.987866    
   3091000   303.56044     -444126.16     -440511.26      435.03498      87.138616      66.217765    
   3092000   299.64081     -444078.69     -440510.46      440.52829      91.101817      66.485336    
   3093000   302.01464     -444106.97     -440510.48      444.57656      99.136747      66.832691    
   3094000   298.79751     -444068.88     -440510.69      446.10545      73.446659      66.902312    
   3095000   296.02076     -444035.28     -440510.17      447.87975      89.697953      67.139767    
   3096000   300.10328     -444085.06     -440511.33      451.12325      81.583293      67.288669    
   3097000   303.25007     -444121.88     -440510.67      458.48264      98.675049      67.608938    
   3098000   297.02703     -444047.56     -440510.46      460.74184      86.47813       67.799536    
   3099000   300.37782     -444087.41     -440510.41      467.31159      69.144134      67.812982    
   3100000   302.38039     -444111.5      -440510.65      471.55829      78.490159      67.918697    
   3101000   302.49255     -444113.56     -440511.38      477.4335       76.256048      68.000435    
   3102000   297.89602     -444059.16     -440511.71      484.3566       81.100191      68.127617    
   3103000   299.71321     -444079.41     -440510.32      492.22516      89.722508      68.335261    
   3104000   297.41539     -444052.69     -440510.97      496.51382      79.900342      68.445404    
   3105000   300.4039      -444088.31     -440511         501.95091      72.505988      68.483712    
   3106000   300.44519     -444088.72     -440510.92      505.95509      96.939876      68.749657    
   3107000   301.9547      -444106.06     -440510.28      511.00185      84.471591      68.895231    
   3108000   295.28361     -444026.84     -440510.51      515.78769      66.322705      68.871629    
   3109000   301.01998     -444095.5      -440510.85      520.21743      65.093567      68.837283    
   3110000   296.03455     -444036.25     -440510.97      527.05795      76.71832       68.908284    
   3111000   302.40897     -444112.16     -440510.97      535.16934      82.574667      69.030305    
   3112000   299.79635     -444080.88     -440510.8       536.97079      78.752148      69.116339    
   3113000   301.9799      -444106.75     -440510.67      541.29183      71.847692      69.140298    
   3114000   296.36066     -444039.84     -440510.68      546.42415      84.973238      69.277976    
   3115000   298.72567     -444069.28     -440511.96      550.27041      81.661895      69.384734    
   3116000   300.31651     -444088.38     -440512.11      558.90328      86.153132      69.528054    
   3117000   301.42755     -444100.59     -440511.09      567.23789      73.015595      69.557609    
   3118000   300.58533     -444090.94     -440511.47      574.46071      79.973483      69.645137    
   3119000   302.32835     -444111        -440510.77      580.28072      78.747476      69.72099     
   3120000   299.97098     -444083.22     -440511.06      582.1303       73.133849      69.749196    
   3121000   298.53543     -444065.56     -440510.5       589.32499      70.498086      69.755334    
   3122000   300.2251      -444086.62     -440511.44      594.96187      53.816079      69.625747    
   3123000   302.75275     -444115.72     -440510.44      603.16011      65.340328      69.591187    
   3124000   295.76198     -444032.38     -440510.34      606.89258      79.551406      69.670869    
   3125000   293.85624     -444010.72     -440511.38      610.62543      83.703924      69.782242    
   3126000   296.15643     -444037.75     -440511.02      612.35366      77.847476      69.845748    
   3127000   298.4794      -444065        -440510.61      616.94536      79.457605      69.92084     
   3128000   299.01615     -444071.06     -440510.28      618.57486      86.83092       70.051926    
   3129000   304.77561     -444140.91     -440511.54      625.79267      70.96004       70.058912    
   3130000   298.3866      -444063.16     -440509.87      629.74154      73.431522      70.084657    
   3131000   299.20513     -444073.62     -440510.59      634.83272      69.39346       70.079421    
   3132000   297.00308     -444047.06     -440510.25      640.15688      77.053381      70.131856    
   3133000   298.19239     -444061.25     -440510.27      644.74709      75.66557       70.173153    
   3134000   301.56131     -444101.25     -440510.16      646.89732      50.413214      70.026783    
   3135000   301.82456     -444105.59     -440511.37      653.14972      37.920031      69.790704    
   3136000   298.6926      -444067.59     -440510.66      657.86982      59.170063      69.713181    
   3137000   300.49883     -444088.72     -440510.28      662.98545      59.188919      69.636918    
   3138000   298.9283      -444069.75     -440510.01      667.20385      68.75224       69.630553    
   3139000   300.50662     -444089.69     -440511.15      671.42728      59.50242       69.55821     
   3140000   299.79313     -444079.66     -440509.62      676.42568      69.758779      69.559632    
   3141000   298.44366     -444064.28     -440510.31      682.29718      78.296684      69.621161    
   3142000   304.75755     -444140.47     -440511.31      685.71818      80.980509      69.700597    
   3143000   301.48732     -444100.53     -440510.32      691.00857      58.843461      69.6252      
   3144000   298.28317     -444063.09     -440511.04      697.88802      81.924514      69.710023    
   3145000   298.39025     -444064.12     -440510.79      705.00036      70.680172      69.716668    
   3146000   302.46343     -444111.53     -440509.7       712.29838      79.244668      69.781484    
   3147000   300.06001     -444083.47     -440510.25      713.78874      79.119659      69.84458     
   3148000   296.56613     -444042.44     -440510.83      718.42251      79.575302      69.909887    
   3149000   302.59098     -444114.72     -440511.36      722.62687      76.403379      69.953177    
   3150000   297.68691     -444055.47     -440510.51      729.77109      71.96677       69.966512    
   3151000   300.9483      -444094.53     -440510.74      733.94361      74.417418      69.995794    
   3152000   297.61082     -444054.09     -440510.04      738.44824      87.704552      70.111537    
   3153000   302.35355     -444111.28     -440510.75      743.0262       74.296518      70.138713    
   3154000   301.0574      -444095.88     -440510.78      744.29982      89.592509      70.264221    
   3155000   303.65803     -444126.94     -440510.88      748.27996      70.446676      70.265391    
   3156000   299.46295     -444076.12     -440510.02      755.20785      73.12037       70.283575    
   3157000   294.9253      -444022.22     -440510.15      759.49159      71.360306      70.29039     
   3158000   300.00756     -444082.47     -440509.88      767.57184      90.290177      70.416175    
   3159000   300.32353     -444086.81     -440510.46      772.24116      81.72324       70.486844    
   3160000   305.95325     -444155.19     -440511.79      774.54416      83.474646      70.567513    
   3161000   297.69067     -444054.72     -440509.72      780.95051      76.437152      70.603746    
   3162000   301.05731     -444095.56     -440510.47      782.75548      76.497407      70.639903    
   3163000   301.70074     -444103.09     -440510.34      788.57991      81.14618       70.703966    
   3164000   299.5789      -444078        -440510.51      792.02942      87.131025      70.803524    
   3165000   300.01139     -444083.34     -440510.71      796.94307      85.274321      70.890697    
   3166000   307.45519     -444171.84     -440510.56      800.84155      100.84149      71.070043    
   3167000   293.73965     -444007.69     -440509.74      804.83724      91.395035      71.191025    
   3168000   297.77973     -444056.06     -440510         809.30942      85.515673      71.275787    
   3169000   297.267       -444050.22     -440510.26      812.14759      70.190627      71.269403    
   3170000   298.32906     -444062.66     -440510.05      816.07141      61.747991      71.213723    
   3171000   302.191       -444109.72     -440511.13      817.84975      55.166583      71.120425    
   3172000   299.83903     -444080.91     -440510.32      824.5505       63.846941      71.078382    
   3173000   294.88502     -444020.72     -440509.13      826.46033      64.792968      71.042259    
   3174000   298.404       -444063.66     -440510.16      832.62947      66.729691      71.017616    
   3175000   300.15423     -444084.72     -440510.38      839.46293      77.363409      71.053671    
   3176000   301.8056      -444104.56     -440510.56      841.40435      68.29308       71.038075    
   3177000   299.19538     -444073.06     -440510.14      846.35754      71.983357      71.043385    
   3178000   296.15403     -444036.78     -440510.08      848.58809      78.779441      71.086604    
   3179000   300.31218     -444086.25     -440510.03      851.07279      88.620491      71.184014    
   3180000   296.43556     -444040.34     -440510.29      857.13162      64.006851      71.144361    
   3181000   295.02925     -444023.56     -440510.25      864.29572      76.223109      71.172266    
   3182000   300.00736     -444083        -440510.41      869.55754      64.513206      71.135878    
   3183000   299.52217     -444076.62     -440509.81      877.25637      62.268038      71.087683    
   3184000   301.65411     -444102.53     -440510.33      881.21755      60.660088      71.031318    
   3185000   299.62595     -444078.53     -440510.48      888.19412      78.641137      71.072231    
   3186000   302.27763     -444110.16     -440510.53      892.28681      79.344694      71.116469    
   3187000   303.8393      -444128.81     -440510.59      896.91856      77.304105      71.149382    
   3188000   305.93856     -444153.44     -440510.22      902.39524      71.172677      71.149505    
   3189000   299.28321     -444074.53     -440510.57      908.12471      84.166903      71.218018    
   3190000   299.6268      -444077.28     -440509.22      909.57666      87.70087       71.304315    
   3191000   296.93666     -444045.69     -440509.67      913.77591      80.433744      71.351864    
   3192000   297.92161     -444058        -440510.25      918.992        72.358396      71.35708     
   3193000   295.92941     -444033.81     -440509.79      923.79645      65.655944      71.327692    
   3194000   300.81553     -444092.88     -440510.66      928.67543      70.967001      71.325843    
   3195000   300.10182     -444083.75     -440510.04      933.25865      69.813132      71.318125    
   3196000   300.04792     -444083        -440509.93      934.59313      77.536907      71.349692    
   3197000   301.5223      -444100.69     -440510.06      936.92378      91.922249      71.453594    
   3198000   301.63512     -444102.16     -440510.18      943.9971       75.101021      71.471923    
   3199000   296.70413     -444043.56     -440510.31      948.69869      63.174079      71.430433    
   3200000   298.99792     -444070.78     -440510.21      955.54507      66.701816      71.406908    
   3201000   301.16327     -444096.19     -440509.83      959.2378       81.786922      71.458294    
   3202000   296.43469     -444039.34     -440509.3       965.08994      78.541853      71.493189    
   3203000   303.62044     -444125.84     -440510.23      972.6821       75.727572      71.513945    
   3204000   302.42726     -444112.28     -440510.88      977.73063      78.451485      71.547787    
   3205000   303.0011      -444118.41     -440510.17      981.59633      70.529632      71.542844    
   3206000   296.11114     -444036.22     -440510.03      983.2222       61.627379      71.494944    
   3207000   295.74394     -444031.72     -440509.9       988.6027       62.493585      71.451668    
   3208000   298.68302     -444066.69     -440509.87      992.48803      71.344571      71.451155    
   3209000   296.00576     -444034.59     -440509.66      997.44542      54.841629      71.372062    
   3210000   301.16295     -444096.94     -440510.59      1002.1916      51.198593      71.276454    
   3211000   296.4875      -444040.03     -440509.36      1004.0443      73.492008      71.286904    
   3212000   303.67293     -444126.62     -440510.39      1007.9642      60.689824      71.237153    
   3213000   295.79071     -444032.34     -440509.97      1010.1252      54.811812      71.160399    
   3214000   296.46862     -444039.81     -440509.36      1017.529       62.573183      71.120458    
   3215000   296.59058     -444041        -440509.1       1023.9644      66.445999      71.098817    
   3216000   299.46803     -444075.78     -440509.62      1029.3075      79.378887      71.136974    
   3217000   302.14271     -444108.03     -440510.01      1030.728       61.309866      71.091896    
   3218000   300.71538     -444090.94     -440509.92      1035.1185      57.506059      71.02986     
   3219000   299.07471     -444071.94     -440510.46      1040.2501      49.709282      70.932948    
   3220000   298.04835     -444058.59     -440509.33      1044.8714      59.486468      70.881154    
   3221000   303.44012     -444122.88     -440509.41      1046.8042      63.252216      70.84679     
   3222000   299.49925     -444075.47     -440508.93      1051.3404      70.434889      70.844943    
   3223000   302.65414     -444115.06     -440510.96      1056.7919      71.896552      70.849637    
   3224000   302.58227     -444113.69     -440510.44      1059.108       64.271187      70.8204      
   3225000   298.94401     -444069.84     -440509.92      1065.7321      57.13618       70.75985     
   3226000   301.51745     -444099.97     -440509.4       1067.3841      64.991113      70.734437    
   3227000   304.71145     -444138.66     -440510.05      1075.69        67.995535      70.722424    
   3228000   298.2379      -444061.81     -440510.3       1077.2617      59.896391      70.675149    
   3229000   301.52145     -444101.16     -440510.54      1080.8534      62.67182       70.640352    
   3230000   298.55767     -444065.44     -440510.11      1085.3098      57.922812      70.585298    
   3231000   300.20272     -444085.22     -440510.3       1089.0602      56.456452      70.524398    
   3232000   304.43575     -444136.34     -440511.02      1093.7068      67.817824      70.512781    
   3233000   300.8386      -444092.16     -440509.67      1101.1405      55.975769      70.450657    
   3234000   297.93946     -444057.34     -440509.38      1108.1698      48.161124      70.355808    
   3235000   300.43201     -444087.06     -440509.42      1113.5232      58.677579      70.306324    
   3236000   298.37671     -444062.81     -440509.64      1117.2655      66.966039      70.29223     
   3237000   298.21474     -444060.53     -440509.29      1122.2826      78.548611      70.326921    
   3238000   304.09721     -444130.78     -440509.49      1126.8425      70.573186      70.327951    
   3239000   303.68212     -444126.03     -440509.68      1132.9719      83.24258       70.381762    
   3240000   298.82091     -444068.53     -440510.07      1135.6469      55.393014      70.319568    
   3241000   301.39844     -444100.28     -440511.13      1137.4121      63.560059      70.291637    
   3242000   301.61574     -444101.66     -440509.91      1144.7266      61.632515      70.256002    
   3243000   292.83434     -443997        -440509.83      1146.4018      67.793872      70.245912    
   3244000   300.6509      -444091.34     -440511.09      1154.3963      61.684648      70.210968    
   3245000   298.85157     -444069.62     -440510.8       1158.0135      77.365645      70.240052    
   3246000   293.55412     -444004.5      -440508.76      1162.3902      70.347104      70.240485    
   3247000   298.38898     -444063.44     -440510.12      1167.4043      64.772584      70.218437    
   3248000   303.0486      -444118.59     -440509.79      1174.6819      65.267585      70.198554    
   3249000   295.24271     -444025.75     -440509.9       1176.1233      71.612268      70.204209    
   3250000   298.44492     -444064.44     -440510.46      1180.3814      78.14741       70.235855    
   3251000   300.52426     -444088.91     -440510.16      1181.7677      68.032075      70.22711     
   3252000   300.99992     -444094.25     -440509.84      1187.7929      64.030358      70.202617    
   3253000   299.31924     -444075.09     -440510.7       1189.7586      71.835029      70.209044    
   3254000   299.77037     -444080.09     -440510.33      1197.5039      63.040553      70.180932    
   3255000   300.73188     -444091.41     -440510.19      1204.853       61.394807      70.146611    
   3256000   296.83706     -444044.88     -440510.04      1209.0911      53.08126       70.080209    
   3257000   302.25315     -444108.91     -440509.57      1210.3432      56.023856      70.025727    
   3258000   296.43386     -444039.69     -440509.65      1217.0363      64.972944      70.006218    
   3259000   303.80882     -444128.62     -440510.77      1218.5957      61.577258      69.973799    
   3260000   298.07787     -444059.88     -440510.26      1220.2498      66.62533       69.96097     
   3261000   305.61903     -444149.38     -440509.96      1227.0771      58.260311      69.916311    
   3262000   299.48546     -444075.97     -440509.6       1232.5022      62.9928        69.889986    
   3263000   302.15798     -444108.28     -440510.08      1237.1747      69.261812      69.887606    
   3264000   296.94006     -444045.22     -440509.16      1239.0157      63.353855      69.862951    
   3265000   304.66214     -444138.12     -440510.11      1240.9911      69.174882      69.860364    
   3266000   293.26462     -444002.31     -440510.02      1244.5596      68.584475      69.855585    
   3267000   295.22862     -444025.09     -440509.41      1247.9265      61.570082      69.824669    
   3268000   298.09938     -444059.5      -440509.63      1249.707       67.666232      69.816645    
   3269000   301.47802     -444101.03     -440510.93      1253.6933      56.730847      69.768179    
   3270000   304.76        -444140.03     -440510.85      1257.4604      49.653576      69.693956    
   3271000   292.8182      -443995.91     -440508.93      1262.3956      57.185697      69.64797     
   3272000   296.79418     -444043.84     -440509.52      1266.9358      57.077085      69.601922    
   3273000   301.19024     -444097.03     -440510.36      1270.7305      64.541802      69.583455    
   3274000   299.51259     -444076.66     -440509.96      1275.9388      53.167159      69.523759    
   3275000   303.79545     -444127.69     -440509.99      1281.0503      57.427375      69.479932    
   3276000   298.21401     -444061.28     -440510.05      1284.4587      74.699222      69.498774    
   3277000   299.05997     -444070.47     -440509.16      1286.7538      55.086955      69.446933    
   3278000   299.55536     -444077.81     -440510.61      1291.3249      65.633118      69.433263    
   3279000   298.95393     -444070.16     -440510.11      1293.7822      59.396912      69.397419    
   3280000   302.17078     -444108.91     -440510.56      1301.2809      60.547172      69.365924    
   3281000   296.26805     -444037.56     -440509.5       1303.005       64.815376      69.349787    
   3282000   296.68789     -444042.5      -440509.44      1308.0029      54.47258       69.297217    
   3283000   303.58607     -444126.62     -440511.42      1309.867       68.962619      69.296039    
   3284000   298.17503     -444061.66     -440510.89      1314.1523      55.6072        69.248008    
   3285000   298.52356     -444065.16     -440510.24      1318.6108      63.092164      69.226484    
   3286000   300.99777     -444094.16     -440509.77      1325.8697      58.420903      69.188834    
   3287000   295.18461     -444024.53     -440509.37      1330.2188      57.4743        69.148159    
   3288000   300.44207     -444088.16     -440510.39      1336.0175      71.056199      69.154761    
   3289000   306.0338      -444154.69     -440510.33      1344.4772      77.551897      69.183716    
   3290000   301.27951     -444097.81     -440510.07      1350.575       73.495356      69.198533    
   3291000   302.36207     -444111.03     -440510.4       1357.7816      64.791981      69.183442    
   3292000   296.29032     -444038.12     -440509.8       1365.511       71.799641      69.192371    
   3293000   301.80498     -444104.22     -440510.22      1367.4445      65.917189      69.181231    
   3294000   300.17381     -444084.94     -440510.37      1371.7219      63.84917       69.163156    
   3295000   299.49837     -444076.66     -440510.13      1379.8008      71.554775      69.171236    
   3296000   299.76647     -444079.69     -440509.97      1381.4417      50.970095      69.109953    
   3297000   301.09251     -444095.69     -440510.18      1385.5458      68.768317      69.108806    
   3298000   297.99832     -444058.44     -440509.77      1390.1278      69.872717      69.111361    
   3299000   297.78027     -444056.44     -440510.37      1391.8494      59.375385      69.078908    
   3300000   301.0295      -444095.16     -440510.4       1397.2657      50.507623      69.017209    
   3301000   296.50529     -444039.91     -440509.02      1404.1581      71.303824      69.024781    
   3302000   301.53067     -444100.97     -440510.24      1409.1125      66.815006      69.017488    
   3303000   300.16146     -444084.59     -440510.17      1413.1491      66.332162      69.008655    
   3304000   297.88933     -444056.59     -440509.23      1419.2819      54.858739      68.962261    
   3305000   295.80478     -444032.12     -440509.58      1424.1356      51.444715      68.905015    
   3306000   293.90646     -444010.31     -440510.38      1426.1735      50.27547       68.844332    
   3307000   302.23031     -444109.16     -440510.1       1431.1278      48.336885      68.777749    
   3308000   301.21423     -444096.75     -440509.79      1433.2176      43.469718      68.695846    
   3309000   303.53941     -444124.41     -440509.76      1437.6969      56.127297      68.655303    
   3310000   301.20384     -444095.78     -440508.94      1439.5625      53.787058      68.607495    
   3311000   302.49456     -444112.47     -440510.26      1445.1373      73.732592      68.623921    
   3312000   300.33473     -444086.31     -440509.83      1450.0375      71.084963      68.631784    
   3313000   300.26898     -444085.41     -440509.7       1454.3562      74.538791      68.650596    
   3314000   304.18654     -444132.5      -440510.14      1459.7528      67.596701      68.647251    
   3315000   298.01854     -444059.38     -440510.47      1464.121       71.64887       68.656749    
   3316000   301.56563     -444102.62     -440511.48      1468.915       76.843853      68.682576    
   3317000   302.16675     -444107.97     -440509.67      1470.5442      62.642965      68.663584    
   3318000   292.64011     -443993.88     -440509.02      1475.0529      66.496431      68.65679     
   3319000   295.0289      -444023.03     -440509.73      1479.1391      76.590739      68.681584    
   3320000   297.89972     -444057.06     -440509.57      1484.0362      65.159514      68.670611    
   3321000   292.53829     -443991.97     -440508.32      1487.8715      70.144525      68.675189    
   3322000   299.11474     -444072.06     -440510.1       1492.2208      68.306357      68.674047    
   3323000   301.45335     -444100.03     -440510.22      1498.7666      54.045128      68.628896    
   3324000   296.28744     -444037.53     -440509.24      1500.6069      64.489967      68.616161    
   3325000   300.19813     -444085.78     -440510.92      1507.4872      67.894854      68.613948    
   3326000   300.21678     -444084.41     -440509.32      1511.9068      66.567426      68.60769     
   3327000   302.19475     -444108.03     -440509.39      1516.3121      53.203868      68.560727    
   3328000   298.6896      -444065.97     -440509.07      1520.5415      65.07562       68.550134    
   3329000   299.29383     -444073.19     -440509.1       1527.748       67.348158      68.546491    
   3330000   302.84794     -444117.47     -440511.05      1531.9948      78.861041      68.577653    
   3331000   298.99476     -444070.94     -440510.41      1536.3693      68.226186      68.576595    
   3332000   301.95758     -444105.78     -440509.97      1540.9454      73.941377      68.592705    
   3333000   294.19472     -444012.12     -440508.76      1543.2047      69.085355      68.59418     
   3334000   303.61517     -444125.41     -440509.85      1551.269       69.270039      68.596198    
   3335000   294.30857     -444013.56     -440508.84      1556.1513      58.803292      68.567052    
   3336000   302.94404     -444118.03     -440510.47      1560.0873      65.75324       68.558702    
   3337000   297.69081     -444055.12     -440510.12      1564.9122      81.353214      68.596556    
   3338000   302.60132     -444113.47     -440509.99      1570.0467      63.916813      68.582751    
   3339000   298.19454     -444060.97     -440509.97      1574.6991      58.187916      68.552178    
   3340000   302.95694     -444117.59     -440509.88      1576.2993      48.272319      68.492707    
   3341000   299.03289     -444070.53     -440509.55      1583.2782      45.293418      68.424873    
   3342000   301.7794      -444104.41     -440510.72      1591.2482      57.855101      68.394057    
   3343000   298.26225     -444061.53     -440509.72      1595.9936      65.616886      68.385984    
   3344000   300.43111     -444087.38     -440509.74      1598.123       58.471555      68.357246    
   3345000   300.62028     -444089.91     -440510.02      1602.7514      47.349501      68.29653     
   3346000   296.99954     -444046.25     -440509.48      1611.3846      63.973415      68.284072    
   3347000   299.12739     -444071.03     -440508.92      1613.0945      73.118841      68.297965    
   3348000   301.30951     -444098.28     -440510.19      1617.4737      81.587302      68.336043    
   3349000   298.54611     -444064.84     -440509.66      1625.1636      82.80703       68.377389    
   3350000   303.80893     -444127.94     -440510.08      1629.2695      78.601123      68.406516    
   3351000   297.1137      -444048.16     -440510.03      1631.0657      76.627609      68.429871    
   3352000   295.24588     -444025.16     -440509.27      1633.6925      72.389536      68.441089    
   3353000   304.2535      -444132.88     -440509.72      1640.5889      63.976097      68.428476    
   3354000   301.50707     -444099.97     -440509.52      1647.443       51.040395      68.379495    
   3355000   300.55288     -444088.5      -440509.42      1649.2443      56.61248       68.346442    
   3356000   299.84239     -444080.69     -440510.06      1654.5048      64.914032      68.336827    
   3357000   301.61791     -444101.28     -440509.51      1656.7468      71.038971      68.344375    
   3358000   301.60401     -444102.22     -440510.62      1660.9016      70.434652      68.350198    
   3359000   298.36486     -444063.03     -440510         1662.9694      74.793981      68.368097    
   3360000   300.97912     -444094.16     -440510         1664.9829      71.510021      68.3768      
   3361000   299.60254     -444077.56     -440509.79      1671.1975      74.794531      68.394529    
   3362000   300.60852     -444089.97     -440510.22      1677.914       77.742884      68.420282    
   3363000   298.51236     -444064        -440509.21      1680.5557      84.184467      68.46359     
   3364000   298.03128     -444058.56     -440509.51      1686.4115      69.227646      68.465683    
   3365000   301.70369     -444102.34     -440509.55      1688.4974      63.768041      68.452848    
   3366000   296.7415      -444042.97     -440509.27      1696.62        43.575314      68.385062    
   3367000   295.63392     -444030.28     -440509.77      1699.2003      49.380141      68.333418    
   3368000   299.30855     -444074.31     -440510.05      1702.1038      51.488403      68.287768    
   3369000   306.88243     -444165.94     -440511.48      1707.4955      57.868333      68.259607    
   3370000   301.94853     -444105.06     -440509.36      1714.9937      56.037944      68.226665    
   3371000   300.31262     -444086.31     -440510.09      1721.0397      57.702977      68.198375    
   3372000   302.08871     -444107.78     -440510.41      1725.3937      62.376517      68.182767    
   3373000   302.87496     -444117        -440510.26      1726.9323      71.206613      68.190852    
   3374000   299.61717     -444078.59     -440510.65      1734.7604      56.112352      68.158643    
   3375000   298.85621     -444069.09     -440510.21      1736.065       68.60588       68.159832    
   3376000   300.43513     -444086.84     -440509.16      1737.6911      56.677345      68.129375    
   3377000   301.75177     -444103.81     -440510.45      1743.4833      46.305511      68.07164     
   3378000   297.05955     -444046.53     -440509.05      1748.1551      53.471646      68.033117    
   3379000   302.7929      -444115.34     -440509.58      1755.1342      54.310054      67.997004    
   3380000   299.30089     -444073.91     -440509.73      1759.4515      67.300313      67.995175    
   3381000   298.81169     -444068.34     -440509.99      1761.4364      64.066619      67.984891    
   3382000   296.39496     -444038.78     -440509.21      1763.4516      68.674386      67.986692    
   3383000   298.16113     -444060.75     -440510.15      1770.1474      63.39573       67.974736    
   3384000   300.6785      -444089.88     -440509.29      1772.269       72.970274      67.987711    
   3385000   301.50697     -444100.25     -440509.8       1777.3066      74.153714      68.003685    
   3386000   298.43213     -444062.38     -440508.54      1781.7665      59.639649      67.982073    
   3387000   301.54423     -444100.81     -440509.92      1785.1171      85.942355      68.028362    
   3388000   300.01306     -444082.97     -440510.31      1791.518       78.32951       68.054843    
   3389000   299.06666     -444071.16     -440509.77      1793.7973      73.220621      68.068089    
   3390000   300.48821     -444087.62     -440509.31      1801.8276      75.905204      68.088133    
   3391000   295.28899     -444025.78     -440509.38      1808.7335      78.108977      68.113696    
   3392000   297.46196     -444052.06     -440509.79      1812.7612      76.514012      68.135071    
   3393000   300.54786     -444088.78     -440509.76      1814.408       63.787454      68.124036    
   3394000   298.65165     -444065.34     -440508.9       1818.4241      62.605073      68.110064    
   3395000   301.19479     -444096.41     -440509.68      1820.2729      73.174965      68.122855    
   3396000   295.23963     -444025.19     -440509.37      1821.9361      69.062502      68.125221    
   3397000   298.30133     -444062.31     -440510.04      1827.1209      72.872411      68.137149    
   3398000   302.52351     -444112.78     -440510.23      1831.2127      91.11785       68.194745    
   3399000   301.57337     -444100.62     -440509.39      1832.932       92.270381      68.254934    
   3400000   297.59194     -444053.06     -440509.24      1839.7239      83.383128      68.29266     
   3401000   296.87475     -444044.84     -440509.56      1841.8391      77.461951      68.315469    
   3402000   301.43615     -444098.94     -440509.33      1848.7601      74.196485      68.330062    
   3403000   297.68367     -444054.41     -440509.49      1850.1939      74.41724       68.34513     
   3404000   297.37075     -444050.72     -440509.53      1851.6536      58.860699      68.321711    
   3405000   301.84268     -444103.94     -440509.49      1858.6175      62.057298      68.306282    
   3406000   299.00751     -444071        -440510.32      1864.5289      63.712527      68.294995    
   3407000   297.85859     -444057.06     -440510.06      1869.5056      70.985299      68.301589    
   3408000   300.122       -444083.69     -440509.73      1878.1253      75.984135      68.320372    
   3409000   298.98577     -444071.5      -440511.08      1881.6099      67.783093      68.319062    
   3410000   298.88478     -444068.38     -440509.15      1886.3117      71.182208      68.326028    
   3411000   294.35156     -444014.88     -440509.64      1893.0201      56.003937      68.29612     
   3412000   301.38835     -444099.66     -440510.62      1896.7497      61.212118      68.278968    
   3413000   294.66114     -444017.59     -440508.67      1901.2946      69.736615      68.282489    
   3414000   298.89741     -444069.62     -440510.25      1909.1915      85.945797      68.325051    
   3415000   291.8282      -443984.59     -440509.41      1910.4914      76.988298      68.345876    
   3416000   297.21674     -444049.06     -440509.71      1914.9497      64.675513      68.337074    
   3417000   305.03314     -444142.72     -440510.28      1922.7635      64.976819      68.329035    
   3418000   297.32817     -444050.22     -440509.53      1929.4054      76.437065      68.348386    
   3419000   300.80055     -444092.66     -440510.62      1938.6965      66.479717      68.343937    
   3420000   298.28401     -444060.97     -440508.9       1946.0039      62.976393      68.331187    
   3421000   296.43422     -444040.56     -440510.52      1953.4557      44.910249      68.275687    
   3422000   297.66477     -444054.19     -440509.5       1961.2962      44.147         68.218646    
   3423000   301.25202     -444097.97     -440510.56      1965.5913      61.210779      68.202118    
   3424000   299.09335     -444071.5      -440509.8       1970.1974      45.994068      68.149863    
   3425000   304.03512     -444130.28     -440509.73      1973.8414      52.923287      68.11412     
   3426000   297.12001     -444047.84     -440509.64      1975.3867      58.328605      68.091203    
   3427000   303.25809     -444120.09     -440508.79      1977.8225      56.482558      68.06408     
   3428000   298.99506     -444071.16     -440510.62      1981.5148      66.673025      68.060838    
   3429000   301.98582     -444105.94     -440509.79      1988.6075      71.074075      68.067845    
   3430000   307.24156     -444168.44     -440509.7       1994.693       80.289977      68.096203    
   3431000   295.65837     -444029.94     -440509.14      1998.6865      68.734654      68.097681    
   3432000   300.74619     -444091.19     -440509.8       2002.844       62.789829      68.085423    
   3433000   299.53268     -444077.78     -440510.85      2006.5579      70.356263      68.090655    
   3434000   302.89763     -444116.38     -440509.37      2011.9883      62.410458      68.077597    
   3435000   300.247       -444085.03     -440509.59      2016.2873      73.716306      68.09053     
   3436000   298.02253     -444058.31     -440509.36      2020.4346      68.65932       68.091831    
   3437000   304.57986     -444137.06     -440510.02      2022.2534      61.863813      68.077612    
   3438000   298.00162     -444057.5      -440508.8       2030.0823      70.380645      68.082858    
   3439000   300.1682      -444083.75     -440509.25      2033.8941      72.797812      68.093574    
   3440000   296.06953     -444034.69     -440508.99      2039.5416      65.963711      68.088744    
   3441000   300.73967     -444090.34     -440509.03      2044.1499      77.378891      68.109763    
   3442000   297.45228     -444051.19     -440509.03      2052.3071      60.294209      68.092121    
   3443000   295.32504     -444026.09     -440509.26      2057.1467      68.458549      68.092946    
   3444000   302.12155     -444107.16     -440509.39      2062.2704      57.189171      68.068443    
   3445000   301.65083     -444101.75     -440509.59      2064.286       45.582088      68.018025    
   3446000   296.12712     -444035.75     -440509.37      2072.3818      47.15032       67.971341    
   3447000   297.42681     -444050.66     -440508.8       2080.2816      54.589267      67.941471    
   3448000   302.91458     -444117.06     -440509.85      2088.6436      51.524605      67.904907    
   3449000   301.18988     -444096.56     -440509.89      2095.9171      61.800505      67.891342    
   3450000   300.10393     -444083.44     -440509.7       2100.7176      73.484017      67.903743    
   3451000   298.82673     -444067.66     -440509.13      2109.4939      71.810578      67.912386    
   3452000   298.02312     -444059.28     -440510.32      2111.6844      63.848659      67.903415    
   3453000   305.81594     -444152.44     -440510.68      2116.0941      67.560229      67.902659    
   3454000   295.24054     -444024.62     -440508.8       2120.7901      72.705845      67.913216    
   3455000   302.08195     -444107.66     -440510.36      2124.0148      85.227747      67.951186    
   3456000   294.72912     -444018.75     -440509.02      2130.0327      100.80477      68.023076    
   3457000   299.84992     -444080.62     -440509.91      2134.5929      89.578821      68.070141    
   3458000   301.02579     -444094.31     -440509.6       2142.2649      84.274884      68.105445    
   3459000   298.13548     -444059.19     -440508.89      2147.9053      82.092927      68.135853    
   3460000   303.46064     -444124.25     -440510.54      2152.8751      90.560738      68.184497    
   3461000   298.72696     -444066.62     -440509.28      2157.5837      77.852039      68.205422    
   3462000   298.63227     -444065.72     -440509.51      2163.7511      85.587563      68.242965    
   3463000   296.99602     -444045.72     -440508.99      2168.4916      101.26266      68.314128    
   3464000   294.93267     -444021.47     -440509.31      2172.7671      83.871298      68.347584    
   3465000   297.09596     -444047        -440509.08      2178.1186      70.896254      68.353053    
   3466000   297.47976     -444051.59     -440509.1       2182.5622      76.80982       68.371162    
   3467000   305.07175     -444142.56     -440509.67      2184.7199      70.698027      68.376134    
   3468000   301.20318     -444096.88     -440510.05      2187.0959      54.758487      68.347099    
   3469000   303.85705     -444128.72     -440510.29      2189.0885      57.576599      68.324183    
   3470000   298.27065     -444061.41     -440509.5       2194.1209      61.07382       68.308789    
   3471000   297.13196     -444048        -440509.65      2196.8395      66.741025      68.305468    
   3472000   302.31256     -444110        -440509.96      2200.9425      68.347377      68.305556    
   3473000   296.88889     -444045.25     -440509.8       2203.1253      75.339771      68.320396    
   3474000   300.64951     -444090.12     -440509.89      2207.8356      63.953889      68.311204    
   3475000   298.53885     -444064.94     -440509.84      2211.7024      86.757718      68.349957    
   3476000   297.34822     -444050.81     -440509.89      2215.8469      62.068815      68.336789    
   3477000   304.66656     -444137.47     -440509.4       2220.7749      52.187126      68.303003    
   3478000   297.01721     -444047        -440510.02      2224.6384      70.521399      68.307634    
   3479000   298.09565     -444059.44     -440509.61      2231.8784      72.396491      68.316153    
   3480000   297.50289     -444051.53     -440508.77      2237.5179      77.939678      68.33616     
   3481000   299.98173     -444081.84     -440509.56      2241.1418      77.181401      68.354511    
   3482000   301.16181     -444096.09     -440509.76      2245.9648      69.405895      68.356688    
   3483000   304.07521     -444130.28     -440509.25      2252.8722      61.259637      68.342025    
   3484000   296.85007     -444044.44     -440509.45      2258.2097      65.79459       68.336772    
   3485000   299.78457     -444079.88     -440509.94      2262.5504      70.311579      68.340836    
   3486000   298.30775     -444061.91     -440509.56      2264.5244      58.104668      68.319817    
   3487000   301.79217     -444103.06     -440509.22      2271.7163      68.102576      68.319372    
   3488000   300.9667      -444094.03     -440510.02      2277.9933      75.904746      68.334884    
   3489000   299.64789     -444078.03     -440509.72      2286.182       71.14702       68.340623    
   3490000   295.48681     -444027.78     -440509.02      2289.5398      69.22808       68.34243     
   3491000   297.84548     -444055.81     -440508.97      2291.2195      67.421282      68.340558    
   3492000   299.99616     -444082.25     -440509.79      2296.7657      63.459972      68.330658    
   3493000   300.65212     -444089.94     -440509.67      2302.4444      51.928235      68.297455    
   3494000   297.86124     -444055.94     -440508.91      2309.1381      55.802175      68.272212    
   3495000   301.07987     -444095.47     -440510.11      2313.3715      67.180562      68.270011    
   3496000   299.82577     -444079.38     -440508.95      2317.925       73.767566      68.281072    
   3497000   302.86791     -444116.12     -440509.47      2321.3608      91.189864      68.327074    
   3498000   302.501       -444111.19     -440508.9       2325.4736      74.879155      68.340204    
   3499000   296.77886     -444042.94     -440508.8       2329.3735      61.765466      68.327055    
   3500000   301.61784     -444101.22     -440509.45      2337.0034      79.435777      68.349228    
Loop time of 12886.4 on 1 procs for 500000 steps with 3996 atoms

Performance: 1.676 ns/day, 14.318 hours/ns, 38.801 timesteps/s, 155.047 katom-step/s
99.9% CPU use with 1 MPI tasks x 1 OpenMP threads

MPI task timing breakdown:
Section |  min time  |  avg time  |  max time  |%varavg| %total
---------------------------------------------------------------
Pair    | 12342      | 12342      | 12342      |   0.0 | 95.77
Bond    | 0.13405    | 0.13405    | 0.13405    |   0.0 |  0.00
Neigh   | 17.613     | 17.613     | 17.613     |   0.0 |  0.14
Comm    | 10.524     | 10.524     | 10.524     |   0.0 |  0.08
Output  | 0.13077    | 0.13077    | 0.13077    |   0.0 |  0.00
Modify  | 490.56     | 490.56     | 490.56     |   0.0 |  3.81
Other   |            | 25.84      |            |       |  0.20

Nlocal:           3996 ave        3996 max        3996 min
Histogram: 1 0 0 0 0 0 0 0 0 0
Nghost:          16438 ave       16438 max       16438 min
Histogram: 1 0 0 0 0 0 0 0 0 0
Neighs:              0 ave           0 max           0 min
Histogram: 1 0 0 0 0 0 0 0 0 0
FullNghs:  3.16354e+06 ave 3.16354e+06 max 3.16354e+06 min
Histogram: 1 0 0 0 0 0 0 0 0 0

Total # of neighbors = 3163538
Ave neighs/atom = 791.67618
Ave special neighs/atom = 0
Neighbor list builds = 5679
Dangerous builds = 0
write_restart   kappa_restart_7
System init for write_restart ...
Total wall time: 3:34:47
