LAMMPS (22 Jul 2025)
KOKKOS mode with Kokkos version 4.6.2 is enabled
  will use up to 1 GPU(s) per node
  using 1 OpenMP thread(s) per MPI task
package kokkos
units           real
atom_style      full
boundary        p p p

atom_modify     map yes
read_data	    kappa.data
Reading data file ...
  orthogonal box = (0.71446759 0.71446759 0.71446759) to (36.662232 36.662232 36.662232)
  1 by 1 by 1 MPI processor grid
  reading atoms ...
  3996 atoms
  reading velocities ...
  3996 velocities
Finding 1-2 1-3 1-4 neighbors ...
  special bond factors lj:    0        0        0       
  special bond factors coul:  0        0        0       
     0 = max # of 1-2 neighbors
     0 = max # of 1-3 neighbors
     0 = max # of 1-4 neighbors
     1 = max # of special neighbors
  special bonds CPU = 0.002 seconds
  read_data CPU = 0.052 seconds

pair_style      bamboo 5.0 5.0 10.0 1
pair_coeff /mnt/bn/ai4s-hl/bamboo/bamboo_finetune/thermal-no-all-13-ft-03/k0r0/density_r2/k0r0-density_r2-0/checkpoints/finetune.pt H C O

neighbor        3.0 bin
neigh_modify	delay 0 check yes

timestep        0.5
velocity        all create 298 123456 mom yes rot yes dist gaussian

compute         ke all ke/atom
variable        kB equal 0.0019872041       # Boltzmann const. (kcal/mol·K)
variable        temp atom c_ke/(1.5*${kB})  # per-atom temperature (K)
variable        temp atom c_ke/(1.5*0.0019872041)  

fix             1 all nve

compute         layers all chunk/atom bin/1d z lower 0.05 units reduced
fix             2 all ave/chunk 10 100 1000 layers v_temp file profile1.mp
fix             3 all thermal/conductivity 500 z 20

variable        tdiff equal f_2[11][3]-f_2[1][3]
thermo_style    custom step temp epair etotal f_3 v_tdiff
thermo_modify   colname f_3 E_delta colname v_tdiff dTemp_step

fix             ave all ave/time 1 1 1000 v_tdiff ave running
thermo_style    custom step temp epair etotal f_3 v_tdiff f_ave
WARNING: New thermo_style command, previous thermo_modify settings will be lost (src/code.byted.org/data/lammps_bamboo/src/output.cpp:912)
thermo_modify   colname f_3 E_delta colname v_tdiff dTemp_step colname f_ave dTemp

thermo          1000
run             500000
Neighbor list info ...
  update: every = 1 steps, delay = 0 steps, check = yes
  max neighbors/atom: 2000, page size: 100000
  master list distance cutoff = 13
  ghost atom cutoff = 13
  binsize = 13, bins = 3 3 3
  1 neighbor lists, perpetual/occasional/extra = 1 0 0
  (1) pair bamboo/kk, perpetual
      attributes: full, newton off, kokkos_device
      pair build: full/bin/kk/device
      stencil: full/bin/3d
      bin: kk/device
WARNING: Fix STORE/ATOM not compatible with sending data in Kokkos communication (src/code.byted.org/data/lammps_bamboo/src/KOKKOS/comm_kokkos.cpp:766)
WARNING: Fix with atom-based arrays not compatible with sending data in Kokkos communication, switching to classic exchange/border communication (src/code.byted.org/data/lammps_bamboo/src/KOKKOS/comm_kokkos.cpp:779)
WARNING: Fix STORE/ATOM not compatible with Kokkos sorting on device (src/code.byted.org/data/lammps_bamboo/src/KOKKOS/atom_kokkos.cpp:212)
WARNING: Fix with atom-based arrays not compatible with Kokkos sorting on device, switching to classic host sorting (src/code.byted.org/data/lammps_bamboo/src/KOKKOS/atom_kokkos.cpp:218)
Per MPI rank memory allocation (min/avg/max) = 8.801 | 8.801 | 8.801 Mbytes
   Step          Temp          E_pair         TotEng        E_delta       dTemp_step       dTemp     
         0   298           -444066.94     -440518.25      0              0              0            
      1000   294.43701     -444024.72     -440518.46      8.7117555      10.370828      5.1854138    
      2000   296.71615     -444051.94     -440518.54      11.02724       2.8477596      4.4061957    
      3000   296.42434     -444047.34     -440517.42      17.907319      16.341893      7.3901201    
      4000   296.86152     -444053.31     -440518.19      23.055158      14.228912      8.7578784    
      5000   290.71397     -443979.88     -440517.96      31.620821      21.491243      10.880106    
      6000   303.74256     -444135.78     -440518.71      36.280356      17.175699      11.779476    
      7000   298.53798     -444073.22     -440518.13      41.053374      24.305917      13.345281    
      8000   302.7232      -444123.75     -440518.82      43.122649      11.509443      13.141299    
      9000   298.86195     -444076.97     -440518.02      48.255768      2.5826853      12.085438    
     10000   299.4102      -444083.03     -440517.55      52.967341      10.088871      11.903932    
     11000   299.63447     -444086.41     -440518.26      57.309387      36.929679      13.989411    
     12000   301.7296      -444111.16     -440518.06      65.577056      25.247949      14.855452    
     13000   301.54589     -444109.31     -440518.4       67.566593      12.366815      14.677692    
     14000   299.68676     -444087.12     -440518.35      76.283356      4.2610479      13.983249    
     15000   298.16432     -444069.38     -440518.73      84.280749      21.660863      14.4631      
     16000   293.98444     -444018.12     -440517.26      88.782485      27.88329       15.252523    
     17000   303.90992     -444137.19     -440518.13      95.621465      27.452981      15.930326    
     18000   297.87059     -444065.31     -440518.17      97.594659      32.959092      16.826577    
     19000   299.97562     -444090.34     -440518.13      102.69803      30.003588      17.485428    
     20000   295.27876     -444035.62     -440519.35      107.363        24.259715      17.808013    
     21000   297.48447     -444060.94     -440518.39      111.04221      42.335122      18.922881    
     22000   298.22441     -444068.91     -440517.55      116.39584      47.058177      20.146155    
     23000   298.13576     -444068.09     -440517.79      124.08807      46.40773       21.240387    
     24000   298.40621     -444072.28     -440518.76      129.06728      68.518928      23.131529    
     25000   293.93537     -444017.81     -440517.53      136.60552      55.981544      24.394991    
     26000   300.00398     -444091.53     -440518.98      138.59425      44.052812      25.123059    
     27000   298.5593      -444074.47     -440519.12      143.19295      47.079349      25.907212    
     28000   296.87072     -444053.47     -440518.23      147.17158      46.292596      26.610156    
     29000   293.69508     -444014.78     -440517.36      151.83026      57.039261      27.62446     
     30000   301.07611     -444103.53     -440518.22      156.73436      48.575088      28.300286    
     31000   299.20435     -444081.91     -440518.88      158.32191      60.302008      29.30034     
     32000   296.54202     -444049.34     -440518.02      160.07153      48.587217      29.884791    
     33000   304.45575     -444143.81     -440518.25      162.28397      46.354677      30.369199    
     34000   299.81992     -444088.88     -440518.52      164.26395      33.179335      30.449489    
     35000   299.05904     -444078.72     -440517.42      168.56269      25.599592      30.31477     
     36000   296.02982     -444043.03     -440517.81      173.181        36.133741      30.472039    
     37000   298.13195     -444068.31     -440518.06      182.26684      44.204616      30.833423    
     38000   301.17319     -444104.12     -440517.65      187.06686      39.94743       31.067115    
     39000   300.55482     -444097.5      -440518.39      189.05353      43.416455      31.375849    
     40000   296.65225     -444050.19     -440517.55      194.82014      46.296254      31.739761    
     41000   295.41207     -444035.44     -440517.57      199.18034      42.974012      32.007243    
     42000   300.02759     -444091.59     -440518.76      206.35952      42.91271       32.260859    
     43000   302.68353     -444122.72     -440518.26      210.81395      36.469111      32.356501    
     44000   304.56402     -444145.06     -440518.21      213.25799      33.252357      32.376409    
     45000   299.09786     -444079.44     -440517.68      217.58045      36.639533      32.469085    
     46000   300.10442     -444091.75     -440518.01      221.57428      51.484039      32.873659    
     47000   301.4624      -444107.91     -440517.99      226.58568      52.869988      33.290249    
     48000   303.69846     -444134.22     -440517.68      231.26326      45.666229      33.54282     
     49000   305.97997     -444161.09     -440517.38      235.31001      45.803585      33.788035    
     50000   298.92478     -444078        -440518.3       240.65091      26.942719      33.653813    
     51000   296.14395     -444045        -440518.42      249.25134      43.981856      33.85243     
     52000   297.17714     -444056.53     -440517.65      250.93785      49.221023      34.142403    
     53000   302.68543     -444122.91     -440518.43      252.6982       43.638016      34.318248    
     54000   303.64851     -444134.31     -440518.36      256.86602      53.000563      34.657926    
     55000   303.72584     -444135.81     -440518.94      262.33065      28.599108      34.549733    
     56000   296.96625     -444053.81     -440517.44      269.63602      38.598525      34.620764    
     57000   301.02813     -444102.38     -440517.63      274.32678      47.56846       34.844001    
     58000   299.39396     -444082.97     -440517.68      281.69141      37.318145      34.885935    
     59000   300.33376     -444094.72     -440518.24      283.14253      38.640352      34.948509    
     60000   299.52834     -444085.06     -440518.18      284.45314      48.175264      35.165341    
     61000   299.40419     -444082.69     -440517.28      291.32564      41.374175      35.265483    
     62000   292.66313     -444002.97     -440517.84      295.70203      34.019571      35.245707    
     63000   298.11817     -444068.5      -440518.41      297.78815      35.473326      35.249264    
     64000   296.74395     -444051.88     -440518.15      302.64468      39.145524      35.309206    
     65000   294.93114     -444029.47     -440517.33      309.96945      49.340708      35.521805    
     66000   298.68183     -444075.25     -440518.45      312.38174      47.390831      35.698954    
     67000   301.31396     -444106.25     -440518.1       317.12795      51.75991       35.935145    
     68000   299.97516     -444090.38     -440518.17      324.49258      48.00164       36.110021    
     69000   298.34117     -444070.75     -440518         326.99932      55.012642      36.380059    
     70000   297.31906     -444057.44     -440516.86      333.90639      48.526954      36.551142    
     71000   296.00756     -444042.34     -440517.39      338.3086       35.157987      36.531793    
     72000   294.77765     -444027.62     -440517.31      340.42487      44.477293      36.640635    
     73000   299.34739     -444082.44     -440517.71      342.62543      44.498214      36.746819    
     74000   300.16927     -444092.28     -440517.76      344.43714      39.019253      36.777118    
     75000   301.8148      -444111.81     -440517.7       345.92858      39.053573      36.807071    
     76000   296.45783     -444048.75     -440518.43      350.38542      49.987253      36.978242    
     77000   301.50282     -444109.03     -440518.63      357.94669      52.474264      37.176909    
     78000   300.59723     -444097.78     -440518.17      359.38928      61.944239      37.49042     
     79000   298.68179     -444074.47     -440517.67      367.44498      75.211216      37.96193     
     80000   302.14869     -444116.25     -440518.16      374.73741      70.114798      38.358879    
     81000   300.10334     -444091.53     -440517.8       376.65269      58.660174      38.606455    
     82000   296.62665     -444050.69     -440518.36      383.53405      55.034044      38.804378    
     83000   294.29315     -444022.19     -440517.65      388.74577      52.095156      38.962602    
     84000   297.91991     -444065.88     -440518.14      390.64742      48.414229      39.073797    
     85000   301.87351     -444113.25     -440518.44      392.33361      43.599525      39.126422    
     86000   302.71011     -444122.59     -440517.82      394.22785      36.396665      39.095046    
     87000   297.2936      -444058.41     -440518.13      399.24208      45.584693      39.168791    
     88000   298.12359     -444067.41     -440517.25      403.96271      48.847914      39.277546    
     89000   299.53883     -444085.25     -440518.24      405.53608      55.58423       39.458731    
     90000   301.83852     -444112.5      -440518.11      410.6516       61.917075      39.705526    
     91000   298.23186     -444069.97     -440518.52      415.54075      43.496011      39.746727    
     92000   298.58304     -444073.56     -440517.94      422.1701       52.791886      39.886998    
     93000   302.25311     -444117.28     -440517.95      424.50664      53.66664       40.033589    
     94000   298.72656     -444075.81     -440518.48      431.32455      65.019411      40.296598    
     95000   299.50626     -444084.59     -440517.97      439.49901      51.144643      40.409599    
     96000   298.01146     -444066.72     -440517.9       446.4641       63.251614      40.645083    
     97000   294.32535     -444022.66     -440517.73      451.09445      60.012033      40.842705    
     98000   299.28466     -444082.47     -440518.49      458.99563      62.636349      41.062843    
     99000   297.55407     -444061.84     -440518.47      466.38396      60.575322      41.257968    
    100000   296.34873     -444047.47     -440518.45      472.99678      54.193599      41.386043    
    101000   299.31842     -444083.62     -440519.24      480.1656       62.900226      41.596967    
    102000   304.2902      -444141.88     -440518.28      488.10782      58.356738      41.759683    
    103000   301.87285     -444111.97     -440517.17      492.73927      84.722208      42.172784    
    104000   298.20801     -444068.56     -440517.4       494.56088      76.014882      42.49509     
    105000   301.31022     -444105.97     -440517.87      499.36828      62.222575      42.681198    
    106000   297.86033     -444065.75     -440518.73      503.89009      29.427786      42.557335    
    107000   298.7121      -444075.03     -440517.87      507.61394      50.834155      42.633972    
    108000   296.7962      -444051.31     -440516.96      509.51765      63.172677      42.8224      
    109000   300.96366     -444102.84     -440518.87      517.15758      74.05304       43.106315    
    110000   305.81483     -444160.28     -440518.54      521.49777      60.888634      43.266516    
    111000   303.39683     -444131.62     -440518.67      528.95328      82.414711      43.616054    
    112000   301.22357     -444104.38     -440517.3       533.98576      73.563644      43.881077    
    113000   305.14036     -444152.34     -440518.63      544.10923      77.280933      44.174058    
    114000   301.54209     -444109        -440518.14      550.54744      90.165293      44.573982    
    115000   301.5618      -444109.41     -440518.31      552.56022      60.500222      44.711277    
    116000   294.05176     -444019.03     -440517.36      554.33993      66.731186      44.899481    
    117000   303.56191     -444132.69     -440517.77      559.41982      53.960324      44.976268    
    118000   303.75751     -444135.59     -440518.35      564.26905      57.235102      45.079283    
    119000   299.60835     -444086.69     -440518.85      566.13975      67.815729      45.268754    
    120000   297.84411     -444064.09     -440517.27      569.36936      71.44455       45.485083    
    121000   298.22679     -444069.59     -440518.21      573.39918      46.503134      45.493427    
    122000   299.84693     -444088.22     -440517.54      577.29165      54.348883      45.565423    
    123000   299.31813     -444082.16     -440517.78      584.42394      57.847668      45.664473    
    124000   298.83881     -444077.03     -440518.36      586.00638      74.951676      45.898771    
    125000   300.10409     -444091.44     -440517.7       591.39588      58.926974      46.002169    
    126000   300.52195     -444097.06     -440518.35      593.0294       62.175382      46.129517    
    127000   298.375       -444071.59     -440518.44      597.801        68.880436      46.307259    
    128000   298.76029     -444076.41     -440518.67      603.60591      59.531877      46.409775    
    129000   299.38566     -444082.88     -440517.69      611.38638      56.889938      46.490392    
    130000   302.23905     -444117        -440517.84      616.4793       49.303992      46.51187     
    131000   297.4074      -444059.19     -440517.56      621.0056       54.386249      46.571524    
    132000   302.16309     -444116.12     -440517.87      627.59398      68.805811      46.738699    
    133000   298.28773     -444069.56     -440517.45      635.75107      56.965318      46.815017    
    134000   300.66195     -444098.47     -440518.09      642.21194      75.254356      47.025679    
    135000   297.17523     -444056.38     -440517.51      645.81094      83.580484      47.294464    
    136000   300.17444     -444092.78     -440518.2       647.6484       64.245178      47.418192    
    137000   293.54        -444013.62     -440518.05      650.17751      58.872508      47.501195    
    138000   296.82076     -444052.28     -440517.64      654.55083      71.624556      47.674744    
    139000   300.76847     -444099.88     -440518.22      660.10783      59.351056      47.758146    
    140000   297.35816     -444058.91     -440517.87      661.84286      64.576625      47.877426    
    141000   298.27603     -444070.38     -440518.4       666.86059      60.698642      47.967716    
    142000   297.3498      -444058.78     -440517.84      668.61877      52.549036      47.999754    
    143000   298.46611     -444071.72     -440517.48      673.59615      57.005225      48.062292    
    144000   300.0914      -444091.91     -440518.32      678.74613      52.215792      48.090936    
    145000   295.48766     -444035.84     -440517.08      685.85943      35.809636      48.006818    
    146000   294.74225     -444027.78     -440517.89      694.53595      37.915527      47.93817     
    147000   297.77333     -444063.91     -440517.92      703.07588      56.877994      47.998574    
    148000   299.61928     -444085.75     -440517.78      710.46571      58.856087      48.071443    
    149000   296.30293     -444047.12     -440518.65      715.02223      59.504931      48.147666    
    150000   301.80548     -444112.31     -440518.31      716.89476      58.067145      48.213358    
    151000   300.69807     -444098.56     -440517.75      718.54922      61.769397      48.302543    
    152000   298.94106     -444078.41     -440518.52      720.51059      51.965159      48.326481    
    153000   295.74305     -444039.53     -440517.72      722.09764      32.840711      48.225925    
    154000   299.40122     -444083.56     -440518.19      726.07832      38.805068      48.165145    
    155000   298.76365     -444075.62     -440517.85      733.75083      49.454242      48.173408    
    156000   299.11924     -444079.94     -440517.93      737.75704      61.652099      48.25926     
    157000   300.37838     -444094.94     -440517.93      739.98001      57.573177      48.318209    
    158000   298.27146     -444070.25     -440518.33      744.39902      47.658476      48.314059    
    159000   302.54773     -444120.94     -440518.1       750.70028      48.928447      48.317899    
    160000   297.41365     -444059.47     -440517.77      751.88516      49.908681      48.32778     
    161000   305.51343     -444156.12     -440517.97      756.31772      54.296861      48.364626    
    162000   295.07146     -444032.44     -440518.63      762.02265      36.797037      48.293659    
    163000   300.55336     -444097.22     -440518.13      767.51358      45.301047      48.275412    
    164000   302.51763     -444121.44     -440518.96      771.31321      55.969964      48.322045    
    165000   302.33962     -444118        -440517.64      777.81997      53.359013      48.352388    
    166000   294.22831     -444021.88     -440518.11      779.57864      59.243854      48.417607    
    167000   297.85367     -444065.12     -440518.18      783.48255      50.272046      48.428645    
    168000   295.99683     -444042.19     -440517.36      787.42437      65.466199      48.529459    
    169000   296.10254     -444044.12     -440518.04      792.08715      50.777729      48.542684    
    170000   297.75546     -444063.84     -440518.07      800.48841      51.533664      48.560175    
    171000   302.83204     -444123.97     -440517.74      805.71524      46.881233      48.550414    
    172000   298.23061     -444069.69     -440518.26      807.99567      41.089692      48.507288    
    173000   300.68849     -444098.53     -440517.83      814.92888      58.613457      48.56537     
    174000   299.19236     -444081.5      -440518.62      819.30043      63.561211      48.65106     
    175000   298.73403     -444075.53     -440518.11      821.88575      48.829788      48.652076    
    176000   301.53803     -444108.47     -440517.65      823.84985      47.740389      48.646925    
    177000   301.87418     -444113.53     -440518.71      827.97707      69.998194      48.766876    
    178000   301.82348     -444112.72     -440518.5       834.43117      65.40682       48.859837    
    179000   301.98598     -444114.44     -440518.29      838.72758      63.182466      48.939407    
    180000   301.24514     -444105.84     -440518.52      842.06925      58.200812      48.990575    
    181000   295.21696     -444034.16     -440518.61      845.48902      46.427442      48.976492    
    182000   305.49495     -444156.25     -440518.31      847.79425      36.217522      48.906771    
    183000   301.86242     -444113.47     -440518.79      854.12281      45.672925      48.889195    
    184000   299.91062     -444089.16     -440517.72      858.78867      53.57965       48.914549    
    185000   302.35794     -444119.03     -440518.45      862.26688      56.264586      48.954065    
    186000   301.7759      -444111.72     -440518.07      867.49029      49.768675      48.958422    
    187000   302.40983     -444119.66     -440518.46      873.98749      37.323936      48.896536    
    188000   300.18625     -444092.03     -440517.31      881.50783      34.4997        48.820362    
    189000   301.62356     -444110.88     -440519.04      886.60959      49.709502      48.825042    
    190000   298.39333     -444071.59     -440518.23      888.91452      58.213166      48.874194    
    191000   305.29748     -444154        -440518.41      890.56379      66.892209      48.968038    
    192000   299.29561     -444081.09     -440516.98      892.5524       58.134541      49.015533    
    193000   295.88211     -444040.59     -440517.13      897.3151       51.972112      49.030773    
    194000   300.47181     -444096.34     -440518.22      899.0547       53.20379       49.052173    
    195000   299.70387     -444087.22     -440518.24      902.94786      53.171736      49.073192    
    196000   293.76362     -444015.28     -440517.05      907.24153      55.201763      49.104301    
    197000   296.62438     -444050.75     -440518.45      911.62533      52.967409      49.123812    
    198000   301.33782     -444106.28     -440517.85      919.75451      53.769218      49.147155    
    199000   302.35336     -444118.66     -440518.13      924.2624       56.390698      49.183373    
    200000   297.92299     -444066.41     -440518.64      931.70175      51.295213      49.19388     
    201000   302.65175     -444122.09     -440518.01      938.8523       67.042604      49.28224     
    202000   301.81461     -444112.25     -440518.14      943.10558      64.597718      49.357686    
    203000   299.84993     -444088.5      -440517.79      944.1668       48.404385      49.353012    
    204000   298.94338     -444078.66     -440518.74      948.48386      45.944595      49.336386    
    205000   299.5562      -444085        -440517.78      953.53676      48.639215      49.333002    
    206000   298.16612     -444069.22     -440518.56      959.86831      50.013735      49.33629     
    207000   299.83598     -444088.31     -440517.76      964.92173      51.219233      49.345343    
    208000   300.18017     -444092.62     -440517.98      972.4784       34.760854      49.275561    
    209000   296.85599     -444052.41     -440517.35      977.46741      58.875416      49.321274    
    210000   300.88381     -444100.69     -440517.66      986.71595      46.244293      49.306691    
    211000   300.50642     -444095.91     -440517.37      991.06845      68.680468      49.398077    
    212000   301.0591      -444102.31     -440517.2       996.21309      61.726384      49.455957    
    213000   295.42298     -444035.62     -440517.63      1003.7316      51.762187      49.466733    
    214000   298.66289     -444074.19     -440517.61      1009.8404      71.100251      49.567354    
    215000   297.77773     -444064.34     -440518.31      1018.0421      70.213996      49.662941    
    216000   301.64534     -444109.66     -440517.56      1023.653       60.537974      49.713056    
    217000   300.72747     -444098.81     -440517.65      1025.7272      54.341538      49.734288    
    218000   297.35765     -444058.75     -440517.72      1031.4428      59.085047      49.776985    
    219000   299.04876     -444078.84     -440517.67      1035.4818      58.235424      49.815433    
    220000   298.96629     -444077.69     -440517.5       1039.5894      55.673279      49.841939    
    221000   296.5681      -444048.62     -440516.99      1044.8035      57.749936      49.87756     
    222000   295.86307     -444041.12     -440517.89      1050.4545      64.472076      49.943006    
    223000   297.96847     -444066        -440517.69      1057.1787      58.604688      49.981675    
    224000   301.14403     -444104.19     -440518.06      1062.2684      60.090019      50.026601    
    225000   305.61205     -444157.72     -440518.39      1070.0738      64.728659      50.091654    
    226000   298.38305     -444071.5      -440518.25      1073.9999      70.759082      50.1827      
    227000   298.25757     -444068.31     -440516.56      1082.7604      72.40689       50.280174    
    228000   296.45656     -444048.03     -440517.73      1090.1229      52.925248      50.291725    
    229000   302.59192     -444121.53     -440518.16      1094.868       67.919374      50.368367    
    230000   296.35247     -444046.47     -440517.4       1099.8644      56.541254      50.395089    
    231000   300.67071     -444098.47     -440517.98      1104.5204      61.282972      50.44202     
    232000   294.17886     -444020.38     -440517.19      1110.3591      63.03982       50.496088    
    233000   298.18981     -444068.66     -440517.71      1117.928       65.213129      50.558981    
    234000   298.23691     -444069.12     -440517.62      1124.6682      68.841446      50.636779    
    235000   294.63443     -444026.53     -440517.93      1126.5003      64.515933      50.695589    
    236000   299.89391     -444089.62     -440518.39      1130.9437      56.57856       50.720411    
    237000   299.54806     -444085        -440517.88      1132.7479      56.150961      50.743229    
    238000   297.47441     -444060.81     -440518.39      1137.3038      50.586642      50.742574    
    239000   299.38319     -444083.16     -440518         1143.9476      41.534136      50.704205    
    240000   300.05816     -444090.47     -440517.28      1148.3672      49.874577      50.700763    
    241000   303.3852      -444130.97     -440518.16      1153.9859      63.14348       50.752179    
    242000   298.05917     -444067.25     -440517.86      1158.533       64.05499       50.806923    
    243000   300.55803     -444097.06     -440517.92      1160.3223      63.459694      50.858779    
    244000   300.15205     -444092.44     -440518.13      1165.5596      60.943923      50.899943    
    245000   299.40281     -444084.12     -440518.74      1170.2579      49.037862      50.892373    
    246000   296.72855     -444050.94     -440517.39      1171.8172      60.567435      50.931543    
    247000   296.87318     -444053.28     -440518.02      1177.8656      50.88702       50.931364    
    248000   298.57823     -444073.03     -440517.46      1182.4276      42.188371      50.896251    
    249000   297.58899     -444061.41     -440517.62      1190.8922      38.765564      50.847729    
    250000   297.7136      -444063.47     -440518.2       1196.3153      43.171429      50.817146    
    251000   298.46453     -444072.81     -440518.6       1201.2623      34.306245      50.751626    
    252000   300.92437     -444100.69     -440517.18      1207.1157      35.812086      50.692577    
    253000   299.99001     -444090.66     -440518.27      1209.6751      36.738324      50.637639    
    254000   300.662       -444098.44     -440518.05      1218.4099      38.027514      50.588187    
    255000   298.81033     -444076.5      -440518.17      1225.3807      44.614842      50.564854    
    256000   299.94503     -444089.03     -440517.18      1229.589       35.948291      50.50798     
    257000   297.97781     -444066.09     -440517.67      1235.2941      34.836428      50.447238    
    258000   292.94069     -444005.97     -440517.53      1240.2127      24.42939       50.346783    
    259000   300.11547     -444092.44     -440518.56      1244.8538      48.618368      50.340135    
    260000   300.08282     -444092.19     -440518.7       1251.4752      43.27478       50.313065    
    261000   300.47131     -444096.31     -440518.2       1255.4019      53.542497      50.325391    
    262000   297.249       -444057.69     -440517.95      1257.1707      31.968854      50.255594    
    263000   302.67954     -444121.88     -440517.47      1259.0622      39.24888       50.213902    
    264000   303.21398     -444128.78     -440518.01      1263.836       25.367302      50.120141    
    265000   299.6745      -444087.28     -440518.66      1269.8839      23.472753      50.019963    
    266000   297.72549     -444063.03     -440517.62      1274.4401      38.484572      49.976759    
    267000   301.62395     -444110.06     -440518.22      1279.7227      44.990919      49.958155    
    268000   296.95669     -444054.03     -440517.77      1284.9939      41.208456      49.925629    
    269000   304.51984     -444145.06     -440518.74      1289.7436      58.473256      49.957287    
    270000   302.88463     -444124.81     -440517.96      1297.6734      46.584321      49.94484     
    271000   301.95335     -444113.84     -440518.08      1299.6314      53.159942      49.95666     
    272000   301.09862     -444103.53     -440517.95      1302.4589      79.752118      50.065801    
    273000   297.99948     -444066.53     -440517.85      1307.6649      71.583167      50.144332    
    274000   299.26624     -444080.81     -440517.05      1309.332       62.68005       50.189916    
    275000   302.541       -444121.47     -440518.71      1319.3099      65.605515      50.24577     
    276000   299.83679     -444087.97     -440517.41      1324.459       80.87307       50.356338    
    277000   294.30438     -444022.56     -440517.89      1329.4757      95.640378      50.51923     
    278000   299.36916     -444082.5      -440517.51      1333.9413      87.20586       50.650723    
    279000   300.21467     -444092.88     -440517.82      1339.1828      74.444749      50.735702    
    280000   302.87171     -444125.38     -440518.68      1343.5045      82.131872      50.847432    
    281000   297.77295     -444063.84     -440517.86      1347.8456      63.187558      50.891191    
    282000   301.97323     -444112.94     -440516.94      1352.287       59.790081      50.922636    
    283000   300.99824     -444102.53     -440518.14      1357.6647      64.136995      50.969166    
    284000   302.90153     -444125.38     -440518.32      1362.5687      73.488253      51.04818     
    285000   297.63026     -444061.59     -440517.31      1366.4167      60.475164      51.081141    
    286000   293.88813     -444017.75     -440518.03      1372.0459      78.832451      51.177836    
    287000   302.04594     -444115.25     -440518.39      1379.1737      72.221322      51.250904    
    288000   296.84178     -444052.75     -440517.86      1381.0445      59.541783      51.279592    
    289000   298.38211     -444071.47     -440518.23      1382.5162      80.781595      51.381323    
    290000   295.80452     -444040.41     -440517.87      1388.0208      63.551897      51.423146    
    291000   297.40585     -444058.78     -440517.17      1390.3647      70.709303      51.489195    
    292000   300.65966     -444098.38     -440518.02      1396.3175      70.513255      51.554123    
    293000   303.29644     -444129.66     -440517.9       1400.2477      54.097142      51.562773    
    294000   300.97944     -444102.25     -440518.09      1406.3378      63.643257      51.603724    
    295000   297.77065     -444063.53     -440517.58      1410.8682      77.193898      51.690177    
    296000   299.05714     -444079.31     -440518.04      1416.73        89.744734      51.818307    
    297000   298.44823     -444071.66     -440517.63      1420.3684      84.136767      51.926758    
    298000   294.9727      -444030.84     -440518.21      1424.612       79.91075       52.02035     
    299000   300.37587     -444095.47     -440518.49      1430.438       85.208211      52.130976    
    300000   297.01049     -444055.12     -440518.22      1434.6729      76.308655      52.211301    
    301000   299.78279     -444087.97     -440518.05      1439.2804      76.911178      52.293088    
    302000   302.78989     -444123.09     -440517.37      1443.3533      87.086699      52.407919    
    303000   295.35809     -444034.78     -440517.56      1446.9213      96.421415      52.5527      
    304000   299.78622     -444087.84     -440517.89      1453.2114      87.804456      52.668279    
    305000   295.75949     -444039.47     -440517.47      1455.4845      71.638689      52.730274    
    306000   294.53311     -444024.72     -440517.32      1460.7048      68.500248      52.781642    
    307000   298.84608     -444075.72     -440516.96      1464.0642      62.989265      52.814784    
    308000   302.60646     -444122.25     -440518.71      1468.4806      67.991122      52.863898    
    309000   299.57509     -444085.59     -440518.15      1474.7323      68.985947      52.915905    
    310000   299.63614     -444085.84     -440517.68      1479.1337      65.784547      52.957283    
    311000   301.66034     -444110.25     -440517.98      1484.7969      55.610334      52.965786    
    312000   298.55777     -444073.28     -440517.95      1486.3629      66.949027      53.010461    
    313000   296.93074     -444052.53     -440516.58      1488.5242      70.261357      53.065401    
    314000   302.70102     -444122.94     -440518.27      1489.9883      69.129881      53.116399    
    315000   297.22261     -444057.22     -440517.79      1495.1379      50.386137      53.107759    
    316000   300.83224     -444100.5      -440518.09      1499.4363      42.89891       53.075554    
    317000   300.83596     -444100.69     -440518.23      1501.8311      38.910328      53.031009    
    318000   295.90272     -444041.06     -440517.35      1503.6741      54.315797      53.035037    
    319000   301.65747     -444109.72     -440517.48      1507.9005      46.863777      53.015752    
    320000   303.35279     -444129.88     -440517.45      1516.5772      44.691647      52.98982     
    321000   298.38192     -444070.06     -440516.83      1521.0957      62.224577      53.018499    
    322000   299.0306      -444078.47     -440517.51      1529.0329      55.595911      53.026479    
    323000   298.95756     -444077.69     -440517.6       1534.6172      59.870928      53.047604    
    324000   298.64481     -444074.31     -440517.95      1538.9955      50.621429      53.040139    
    325000   303.51345     -444131.91     -440517.57      1543.3123      61.979102      53.067559    
    326000   302.72788     -444122.66     -440517.67      1551.4126      43.116653      53.037128    
    327000   293.91261     -444016.84     -440516.83      1559.1423      68.967009      53.085695    
    328000   301.52392     -444107.81     -440517.16      1560.3783      53.720817      53.087625    
    329000   300.63976     -444097.81     -440517.69      1566.6883      75.494851      53.155526    
    330000   300.40178     -444094.44     -440517.15      1570.7575      58.883651      53.172831    
    331000   294.95615     -444029.25     -440516.81      1574.7316      44.977805      53.148147    
    332000   297.75075     -444063.84     -440518.13      1579.0094      31.983163      53.084589    
    333000   302.29261     -444117.78     -440517.98      1585.9737      37.590327      53.038199    
    334000   299.83986     -444088.38     -440517.78      1589.8791      40.925406      53.002041    
    335000   299.98738     -444089.41     -440517.06      1594.9586      52.510237      53.000578    
    336000   297.86534     -444063.88     -440516.79      1599.6633      59.457674      53.019738    
    337000   298.00001     -444066.41     -440517.72      1601.8756      43.815882      52.992508    
    338000   299.55609     -444085.25     -440518.04      1606.2473      51.598128      52.988395    
    339000   299.58912     -444084.28     -440516.67      1610.0449      48.069921      52.973929    
    340000   299.11187     -444080.47     -440518.54      1614.28        59.481348      52.993012    
    341000   302.67992     -444122.12     -440517.71      1617.999       56.018918      53.00186     
    342000   299.3596      -444082.69     -440517.81      1622.7016      55.882507      53.010258    
    343000   294.72726     -444027.94     -440518.23      1626.6992      57.956533      53.024637    
    344000   305.14487     -444152.12     -440518.36      1630.8467      52.381616      53.022773    
    345000   300.25793     -444093.41     -440517.83      1635.3094      44.755856      52.99888     
    346000   304.78197     -444147.38     -440517.93      1642.5801      45.002673      52.975836    
    347000   301.18321     -444104.31     -440517.72      1649.0126      74.003319      53.03626     
    348000   298.51643     -444072.75     -440517.92      1654.2992      71.301504      53.088596    
    349000   297.92628     -444065.41     -440517.6       1660.1373      51.717373      53.084678    
    350000   297.98105     -444067.41     -440518.95      1661.8145      54.64833       53.089133    
    351000   297.38952     -444059.28     -440517.87      1663.4087      57.377697      53.101316    
    352000   303.39092     -444130.34     -440517.46      1667.3274      64.927008      53.134817    
    353000   295.60172     -444037.34     -440517.22      1669.3193      67.030905      53.174071    
    354000   295.5138      -444035.66     -440516.58      1675.2618      57.256789      53.185572    
    355000   300.52226     -444096.66     -440517.94      1679.5846      55.48196       53.192023    
    356000   303.69972     -444134.84     -440518.29      1687.4855      55.405363      53.198222    
    357000   296.69996     -444050.88     -440517.67      1689.506       76.639166      53.2637      
    358000   300.97637     -444102.38     -440518.25      1697.5932      86.305255      53.355738    
    359000   301.22        -444103.81     -440516.78      1705.8166      82.361543      53.436309    
    360000   303.28426     -444128.78     -440517.17      1710.2659      74.997012      53.496034    
    361000   295.11559     -444032.25     -440517.91      1719.0593      81.020355      53.572068    
    362000   301.26784     -444105.12     -440517.53      1720.9206      73.718785      53.627569    
    363000   307.85224     -444183.62     -440517.62      1725.5411      81.362644      53.703764    
    364000   296.69947     -444051.19     -440517.99      1730.5523      78.55185       53.771841    
    365000   299.20204     -444081.34     -440518.35      1735.3435      73.457695      53.825628    
    366000   296.97618     -444054.22     -440517.73      1741.4266      75.08718       53.883561    
    367000   297.29661     -444058.41     -440518.1       1743.3205      60.340156      53.901106    
    368000   303.6997      -444134.5      -440517.94      1747.139       51.119994      53.893569    
    369000   299.12192     -444080.72     -440518.67      1749.2162      59.451272      53.90859     
    370000   304.52859     -444143.91     -440517.48      1755.7389      62.034271      53.930492    
    371000   305.49414     -444155.38     -440517.45      1760.2274      71.304306      53.977196    
    372000   299.79404     -444088.38     -440518.33      1769.5637      60.823381      53.99555     
    373000   299.32635     -444081.91     -440517.43      1773.7278      68.40267       54.034072    
    374000   303.6788      -444133.91     -440517.6       1777.8626      61.894034      54.055032    
    375000   298.94181     -444077.31     -440517.41      1784.1437      45.185732      54.031443    
    376000   301.14282     -444103.78     -440517.67      1787.4494      43.171889      54.002638    
    377000   293.13005     -444007.94     -440517.25      1789.5671      58.803084      54.015338    
    378000   297.51306     -444060.47     -440517.58      1791.7651      72.504646      54.064122    
    379000   296.54951     -444048.5      -440517.09      1796.2538      69.915072      54.105835    
    380000   302.4824      -444119.47     -440517.41      1798.6328      50.830365      54.097238    
    381000   299.99611     -444089.66     -440517.2       1807.3058      58.392496      54.108482    
    382000   300.62373     -444097.03     -440517.1       1812.0495      77.706335      54.170096    
    383000   301.91347     -444113.53     -440518.24      1816.4372      73.723864      54.221017    
    384000   301.85139     -444111.69     -440517.14      1823.7539      62.758113      54.243191    
    385000   299.52188     -444084.88     -440518.07      1827.536       66.461294      54.274844    
    386000   297.70139     -444061.56     -440516.43      1829.6852      73.048048      54.323354    
    387000   301.00507     -444102.53     -440518.06      1837.3388      65.396123      54.351892    
    388000   296.09811     -444043.44     -440517.4       1844.7814      47.141334      54.333356    
    389000   301.71566     -444111.03     -440518.1       1849.335       65.08482       54.360924    
    390000   295.21727     -444032.62     -440517.08      1854.0436      47.063853      54.342261    
    391000   300.9371      -444101.78     -440518.12      1863.2265      61.321812      54.360066    
    392000   300.67395     -444097.09     -440516.57      1869.4224      65.843793      54.389287    
    393000   297.83658     -444063.72     -440516.98      1873.7566      69.419706      54.427435    
    394000   299.67051     -444085.59     -440517.02      1875.7181      55.761122      54.430811    
    395000   296.52068     -444049.25     -440518.18      1882.6253      69.47723       54.468807    
    396000   300.93505     -444101.78     -440518.15      1887.7727      57.180222      54.475637    
    397000   300.56562     -444097.16     -440517.92      1889.5655      55.872279      54.479146    
    398000   305.40254     -444154.38     -440517.54      1894.5995      60.168177      54.493404    
    399000   298.95776     -444077.28     -440517.19      1898.8166      61.254187      54.510306    
    400000   296.01928     -444042.19     -440517.09      1900.5373      64.576071      54.535408    
    401000   296.64201     -444049.78     -440517.27      1904.7617      61.572899      54.552914    
    402000   297.58458     -444061.81     -440518.08      1913.9307      68.499588      54.587521    
    403000   296.18848     -444045.06     -440517.95      1921.5407      48.17689       54.571653    
    404000   300.3429      -444094.5      -440517.92      1924.9585      57.905972      54.579886    
    405000   296.03269     -444043.16     -440517.9       1926.4889      57.259114      54.586485    
    406000   301.84457     -444112.34     -440517.88      1928.4636      50.709113      54.576959    
    407000   292.46388     -443999.56     -440516.8       1930.9449      56.859477      54.582553    
    408000   297.36542     -444058.53     -440517.4       1932.6953      58.724184      54.592679    
    409000   294.86829     -444029.12     -440517.73      1939.3515      34.730341      54.544235    
    410000   299.97189     -444090.53     -440518.37      1944.2698      42.240273      54.514298    
    411000   298.42646     -444071.28     -440517.52      1949.1387      53.214028      54.511142    
    412000   301.88592     -444112.28     -440517.32      1956.0381      67.271877      54.54204     
    413000   299.86861     -444088.09     -440517.16      1963.6631      53.736769      54.540095    
    414000   298.68721     -444074.06     -440517.19      1969.4186      50.981201      54.531519    
    415000   296.8887      -444053.59     -440518.14      1974.2474      69.463505      54.567413    
    416000   298.27273     -444069.38     -440517.44      1976.2848      50.436995      54.557508    
    417000   302.79418     -444123.22     -440517.44      1980.6106      40.053295      54.522809    
    418000   297.98088     -444066.66     -440518.2       1982.3973      34.521639      54.475073    
    419000   293.49142     -444012.28     -440517.29      1984.3916      43.661183      54.449326    
    420000   299.94049     -444089.25     -440517.46      1988.7211      57.50659       54.456588    
    421000   302.78106     -444123.59     -440517.98      1994.4963      34.60055       54.409536    
    422000   301.77872     -444111.34     -440517.66      1996.6898      45.519804      54.38852     
    423000   296.4834      -444048.81     -440518.19      2003.4246      52.538479      54.384157    
    424000   296.23551     -444044.75     -440517.08      2007.6256      63.158092      54.404801    
    425000   302.44762     -444118.19     -440516.54      2011.234       63.253032      54.425572    
    426000   297.7566      -444062.81     -440517.03      2013.5857      67.932549      54.457204    
    427000   299.64385     -444085.78     -440517.52      2018.612       65.456492      54.482903    
    428000   294.94174     -444028.88     -440516.61      2020.3415      47.533914      54.466705    
    429000   297.33593     -444058.34     -440517.57      2022.5366      31.401982      54.413066    
    430000   302.6731      -444122.25     -440517.92      2029.3661      41.24558       54.382515    
    431000   305.76543     -444159.91     -440518.75      2033.5618      55.409677      54.384893    
    432000   299.33564     -444082.19     -440517.6       2043.2989      39.96981       54.351602    
    433000   301.06843     -444102.88     -440517.65      2051.0501      42.238694      54.323692    
    434000   296.70584     -444051.28     -440518.01      2056.8357      41.994372      54.295348    
    435000   299.70263     -444086.44     -440517.48      2058.6103      46.698473      54.277924    
    436000   303.18459     -444127.97     -440517.54      2063.1384      56.039184      54.281955    
    437000   293.97598     -444017.09     -440516.33      2067.7273      55.626781      54.285025    
    438000   299.51712     -444084.03     -440517.28      2072.2586      46.673127      54.267686    
    439000   298.54951     -444072.62     -440517.4       2079.2898      56.104478      54.271861    
    440000   297.15773     -444055.22     -440516.56      2083.6569      48.222816      54.258144    
    441000   302.56081     -444121.06     -440518.07      2088.8584      48.002634      54.243991    
    442000   296.79525     -444050.44     -440516.1       2093.4486      64.042797      54.26611     
    443000   302.51159     -444120.25     -440517.84      2095.9914      57.774647      54.274012    
    444000   296.05079     -444042.56     -440517.09      2097.9795      43.89082       54.250679    
    445000   301.34469     -444106.22     -440517.7       2104.4684      38.427925      54.215202    
    446000   296.05385     -444042.62     -440517.12      2109.5033      51.651965      54.209468    
    447000   297.72229     -444062.19     -440516.81      2111.1804      53.124864      54.207047    
    448000   298.70298     -444074.22     -440517.16      2117.0746      61.589233      54.223489    
    449000   299.52773     -444083.12     -440516.25      2121.0888      72.825425      54.264826    
    450000   299.7071      -444086.12     -440517.11      2128.0088      67.159226      54.293417    
    451000   293.86349     -444016.78     -440517.36      2135.3262      67.879696      54.323475    
    452000   297.48755     -444059.38     -440516.79      2143.228       55.955093      54.327077    
    453000   298.81162     -444075.72     -440517.37      2147.2526      61.170569      54.342151    
    454000   299.13121     -444079.56     -440517.41      2154.7814      55.159276      54.343946    
    455000   301.78898     -444111.72     -440517.91      2156.4599      55.139222      54.34569     
    456000   302.92676     -444125        -440517.65      2164.2388      53.315961      54.343437    
    457000   302.58259     -444120.59     -440517.34      2170.5351      54.591979      54.34398     
    458000   296.72342     -444051.38     -440517.89      2172.5604      66.756365      54.371022    
    459000   297.33146     -444058.59     -440517.87      2176.0198      69.642143      54.40422     
    460000   302.6178      -444121.66     -440517.98      2181.4497      63.152199      54.423196    
    461000   302.60972     -444121.25     -440517.67      2188.5136      74.550013      54.466761    
    462000   298.90562     -444076.59     -440517.13      2190.8703      64.868324      54.489226    
    463000   299.02438     -444078.19     -440517.3       2194.904       64.679583      54.511188    
    464000   298.51229     -444072.78     -440518         2200.2698      56.317661      54.515073    
    465000   302.02172     -444113.5      -440516.92      2204.7833      51.51096       54.508627    
    466000   297.60728     -444061.75     -440517.74      2212.8389      60.713952      54.521914    
    467000   300.49736     -444095.94     -440517.51      2218.9674      57.745757      54.528803    
    468000   302.38026     -444118.44     -440517.59      2222.926       49.749268      54.518612    
    469000   302.01062     -444114.78     -440518.34      2225.337       41.728418      54.491399    
    470000   298.37536     -444071        -440517.85      2227.6362      30.645488      54.440771    
    471000   299.92473     -444089.31     -440517.71      2232.1283      16.176149      54.359701    
    472000   300.39312     -444094.38     -440517.19      2233.7318      5.7871404      54.257011    
    473000   305.9734      -444161.53     -440517.9       2241.906       18.594493      54.181774    
    474000   299.20346     -444080.5      -440517.48      2244.0816      29.551544      54.129921    
    475000   298.59487     -444071.91     -440516.14      2251.1409      22.149137      54.062734    
    476000   297.22412     -444057.25     -440517.81      2259.3133      43.387974      54.040355    
    477000   302.46312     -444119.62     -440517.79      2263.5505      60.048682      54.052925    
    478000   299.83624     -444086.78     -440516.23      2269.2674      44.31663       54.032598    
    479000   296.22474     -444043.69     -440516.14      2276.8542      57.010784      54.038803    
    480000   295.55822     -444037.41     -440517.8       2279.1791      72.217245      54.076596    
    481000   299.38197     -444082.31     -440517.17      2285.7912      62.618872      54.094319    
    482000   296.27221     -444045.34     -440517.23      2287.3587      44.180416      54.073793    
    483000   298.33455     -444069.31     -440516.64      2292.4283      33.698454      54.031695    
    484000   298.77323     -444075.56     -440517.67      2298.5975      28.951012      53.979982    
    485000   300.71887     -444098.41     -440517.34      2303.4057      53.274244      53.97853     
    486000   300.97535     -444101.5      -440517.38      2311.5829      32.278244      53.933971    
    487000   299.24128     -444080.84     -440517.38      2318.5881      45.476857      53.916641    
    488000   299.20542     -444079.94     -440516.9       2326.4828      35.489604      53.878958    
    489000   298.45485     -444070        -440515.9       2331.7283      47.166172      53.865258    
    490000   299.64127     -444086.16     -440517.93      2340.4458      46.797336      53.850863    
    491000   297.4896      -444060.16     -440517.55      2345.0862      61.097917      53.865593    
    492000   300.73545     -444097.22     -440515.96      2346.963       51.972417      53.861753    
    493000   304.94642     -444148.59     -440517.19      2351.4948      55.09174       53.864243    
    494000   307.96291     -444184.97     -440517.64      2357.5755      45.863764      53.84808     
    495000   302.64287     -444120.69     -440516.71      2359.5679      47.424864      53.83513     
    496000   301.62508     -444109.78     -440517.93      2364.0229      27.608437      53.78236     
    497000   298.29926     -444069.94     -440517.69      2365.8169      39.918601      53.754521    
    498000   303.74448     -444134.56     -440517.47      2372.2243      51.368373      53.74974     
    499000   298.22319     -444068.94     -440517.6       2378.66        55.111614      53.752463    
    500000   298.18118     -444067.09     -440516.25      2385.6717      65.00707       53.774928    
Loop time of 12931.8 on 1 procs for 500000 steps with 3996 atoms

Performance: 1.670 ns/day, 14.369 hours/ns, 38.665 timesteps/s, 154.503 katom-step/s
99.9% CPU use with 1 MPI tasks x 1 OpenMP threads

MPI task timing breakdown:
Section |  min time  |  avg time  |  max time  |%varavg| %total
---------------------------------------------------------------
Pair    | 12308      | 12308      | 12308      |   0.0 | 95.18
Bond    | 0.20886    | 0.20886    | 0.20886    |   0.0 |  0.00
Neigh   | 18.033     | 18.033     | 18.033     |   0.0 |  0.14
Comm    | 11.447     | 11.447     | 11.447     |   0.0 |  0.09
Output  | 0.1504     | 0.1504     | 0.1504     |   0.0 |  0.00
Modify  | 565.72     | 565.72     | 565.72     |   0.0 |  4.37
Other   |            | 27.71      |            |       |  0.21

Nlocal:           3996 ave        3996 max        3996 min
Histogram: 1 0 0 0 0 0 0 0 0 0
Nghost:          16440 ave       16440 max       16440 min
Histogram: 1 0 0 0 0 0 0 0 0 0
Neighs:              0 ave           0 max           0 min
Histogram: 1 0 0 0 0 0 0 0 0 0
FullNghs:   3.1631e+06 ave  3.1631e+06 max  3.1631e+06 min
Histogram: 1 0 0 0 0 0 0 0 0 0

Total # of neighbors = 3163098
Ave neighs/atom = 791.56607
Ave special neighs/atom = 0
Neighbor list builds = 5651
Dangerous builds = 0
write_restart   kappa_restart_1
System init for write_restart ...
Total wall time: 3:35:32
