LAMMPS (22 Jul 2025)
KOKKOS mode with Kokkos version 4.6.2 is enabled
  will use up to 1 GPU(s) per node
  using 1 OpenMP thread(s) per MPI task
package kokkos
read_restart    kappa_restart_1
Reading restart file ...
  restart file = 22 Jul 2025, LAMMPS = 22 Jul 2025
  restoring atom style full/kk from restart
  orthogonal box = (0.71446759 0.71446759 0.71446759) to (36.662232 36.662232 36.662232)
  1 by 1 by 1 MPI processor grid
  pair style bamboo stores no restart info
  3996 atoms
Finding 1-2 1-3 1-4 neighbors ...
  special bond factors lj:    0        0        0       
  special bond factors coul:  0        0        0       
     0 = max # of 1-2 neighbors
     0 = max # of 1-3 neighbors
     0 = max # of 1-4 neighbors
     1 = max # of special neighbors
  special bonds CPU = 0.001 seconds
  read_restart CPU = 0.029 seconds

pair_style      bamboo 5.0 5.0 10.0 1
pair_coeff /mnt/bn/ai4s-hl/bamboo/bamboo_finetune/thermal-no-all-13-ft-03/k0r0/density_r2/k0r0-density_r2-0/checkpoints/finetune.pt H C O

neighbor        3.0 bin
neigh_modify	delay 0 check yes

compute         ke all ke/atom
variable        kB equal 0.0019872041       # Boltzmann const. (kcal/mol·K)
variable        temp atom c_ke/(1.5*${kB})  # per-atom temperature (K)
variable        temp atom c_ke/(1.5*0.0019872041)  

fix             1 all nve

compute         layers all chunk/atom bin/1d z lower 0.05 units reduced
fix             2 all ave/chunk 10 100 1000 layers v_temp file profile2.mp
fix             3 all thermal/conductivity 500 z 20

variable        tdiff equal f_2[11][3]-f_2[1][3]
thermo_style    custom step temp epair etotal f_3 v_tdiff
thermo_modify   colname f_3 E_delta colname v_tdiff dTemp_step

fix             ave all ave/time 1 1 1000 v_tdiff ave running
thermo_style    custom step temp epair etotal f_3 v_tdiff f_ave
WARNING: New thermo_style command, previous thermo_modify settings will be lost (src/code.byted.org/data/lammps_bamboo/src/output.cpp:912)
thermo_modify   colname f_3 E_delta colname v_tdiff dTemp_step colname f_ave dTemp

thermo          1000
run             500000
Unused restart file peratom fix info:
  fix style: STORE/ATOM, fix ID: layers_COMPUTE_STORE
Neighbor list info ...
  update: every = 1 steps, delay = 0 steps, check = yes
  max neighbors/atom: 2000, page size: 100000
  master list distance cutoff = 13
  ghost atom cutoff = 13
  binsize = 13, bins = 3 3 3
  1 neighbor lists, perpetual/occasional/extra = 1 0 0
  (1) pair bamboo/kk, perpetual
      attributes: full, newton off, kokkos_device
      pair build: full/bin/kk/device
      stencil: full/bin/3d
      bin: kk/device
WARNING: Fix STORE/ATOM not compatible with sending data in Kokkos communication (src/code.byted.org/data/lammps_bamboo/src/KOKKOS/comm_kokkos.cpp:766)
WARNING: Fix with atom-based arrays not compatible with sending data in Kokkos communication, switching to classic exchange/border communication (src/code.byted.org/data/lammps_bamboo/src/KOKKOS/comm_kokkos.cpp:779)
WARNING: Fix STORE/ATOM not compatible with Kokkos sorting on device (src/code.byted.org/data/lammps_bamboo/src/KOKKOS/atom_kokkos.cpp:212)
WARNING: Fix with atom-based arrays not compatible with Kokkos sorting on device, switching to classic host sorting (src/code.byted.org/data/lammps_bamboo/src/KOKKOS/atom_kokkos.cpp:218)
Per MPI rank memory allocation (min/avg/max) = 8.709 | 8.709 | 8.709 Mbytes
   Step          Temp          E_pair         TotEng        E_delta       dTemp_step       dTemp     
    500000   298.18118     -444067.28     -440516.44      0              0              0            
    501000   303.87259     -444137.16     -440518.54      1.6668984      48.662775      24.331388    
    502000   297.38627     -444057.59     -440516.22      6.8660202      40.031536      29.56477     
    503000   299.37036     -444082.38     -440517.37      14.892733      59.826489      37.1302      
    504000   296.21691     -444044.31     -440516.86      16.550892      66.238016      42.951763    
    505000   299.49201     -444083.34     -440516.89      17.728322      67.339578      47.016399    
    506000   295.23566     -444033.34     -440517.58      22.817978      48.819011      47.273915    
    507000   303.29317     -444129.28     -440517.56      26.996646      52.536317      47.931715    
    508000   299.26072     -444080.66     -440516.96      33.030944      53.462969      48.546299    
    509000   298.68902     -444074.03     -440517.14      37.13199       63.291082      50.020777    
    510000   300.45604     -444096.19     -440518.26      38.548764      54.593722      50.436499    
    511000   296.88016     -444052.66     -440517.31      42.357455      45.955487      50.063082    
    512000   299.79684     -444087.75     -440517.67      44.868954      57.501059      50.635234    
    513000   299.0866      -444078.69     -440517.06      51.226978      56.778021      51.074004    
    514000   298.85764     -444076.81     -440517.92      52.930768      57.927982      51.530936    
    515000   297.14664     -444056.59     -440518.07      57.111273      52.085168      51.565576    
    516000   301.25029     -444105.28     -440517.89      62.581139      51.941861      51.58771     
    517000   305.61865     -444156.88     -440517.47      68.45142       70.543574      52.640814    
    518000   303.40053     -444131.06     -440518.07      72.725878      67.911156      53.444516    
    519000   303.12418     -444126.59     -440516.89      77.724581      65.63103       54.053842    
    520000   300.36049     -444094.53     -440517.74      84.734904      47.772262      53.754719    
    521000   299.26189     -444081.09     -440517.38      91.035429      72.870445      54.623615    
    522000   300.37226     -444094.47     -440517.53      92.54442       68.704619      55.235833    
    523000   295.54837     -444036.44     -440516.95      97.169542      74.482778      56.037789    
    524000   299.21336     -444081.28     -440518.15      104.1859       66.719633      56.465063    
    525000   301.08754     -444102.75     -440517.3       108.44413      57.000355      56.485651    
    526000   299.46436     -444083.62     -440517.5       110.17136      60.150438      56.621384    
    527000   296.54617     -444049.31     -440517.94      114.50445      55.500411      56.581349    
    528000   299.87909     -444088.78     -440517.72      121.37285      56.041174      56.562722    
    529000   299.91426     -444088.31     -440516.83      125.71144      43.715399      56.134478    
    530000   300.09724     -444090.28     -440516.62      132.40335      41.188261      55.652342    
    531000   300.15605     -444091.84     -440517.48      134.38341      39.802741      55.157042    
    532000   300.13269     -444091.22     -440517.14      136.30447      40.851938      54.723554    
    533000   302.17984     -444116        -440517.54      141.34678      34.37892       54.125183    
    534000   302.33085     -444117.97     -440517.71      143.08701      44.022901      53.836546    
    535000   304.94312     -444149.56     -440518.2       147.03877      52.031685      53.786411    
    536000   299.68268     -444085.03     -440516.31      151.14658      55.963012      53.845238    
    537000   299.90303     -444089.22     -440517.87      156.47884      54.083372      53.851505    
    538000   297.18969     -444056.62     -440517.59      157.88588      50.623892      53.768745    
    539000   301.04798     -444102.94     -440517.96      165.40152      51.63847       53.715488    
    540000   301.07533     -444102.75     -440517.44      172.25743      50.338379      53.63312     
    541000   298.25268     -444069.72     -440518.03      176.15988      53.357131      53.626549    
    542000   297.14986     -444056.06     -440517.5       180.50359      50.541806      53.554811    
    543000   296.18553     -444044.53     -440517.45      189.63293      62.845351      53.765959    
    544000   296.56882     -444049        -440517.36      193.81053      63.455893      53.981291    
    545000   300.03308     -444090.28     -440517.39      201.41454      69.578438      54.320359    
    546000   296.21442     -444043.81     -440516.39      208.70673      79.824156      54.862993    
    547000   301.74767     -444110.53     -440517.22      210.97965      79.358532      55.373317    
    548000   297.81924     -444063.78     -440517.25      215.27209      81.85351       55.913729    
    549000   300.38511     -444093.59     -440516.51      219.50772      65.802866      56.111512    
    550000   307.95815     -444185.41     -440518.14      227.10909      77.892703      56.538594    
    551000   301.86124     -444111.88     -440517.21      228.83558      77.717498      56.945881    
    552000   298.25446     -444069.56     -440517.85      231.02098      82.055817      57.419653    
    553000   301.6187      -444108.47     -440516.69      234.77899      59.16841       57.452038    
    554000   294.44012     -444022.06     -440515.77      236.50662      70.875922      57.696108    
    555000   300.88877     -444100.22     -440517.13      243.26601      82.063136      58.131234    
    556000   296.07549     -444042.09     -440516.33      247.35503      64.281233      58.239128    
    557000   296.69641     -444049.62     -440516.46      252.8456       74.999453      58.5281      
    558000   301.07721     -444103.03     -440517.7       256.48839      65.268133      58.642337    
    559000   298.05858     -444067        -440517.62      258.37764      58.778067      58.6446      
    560000   299.21426     -444080.16     -440517.01      262.69863      54.827017      58.582016    
    561000   296.62163     -444050.06     -440517.79      267.41293      66.108275      58.703407    
    562000   302.41958     -444118.59     -440517.28      272.69512      58.285978      58.696782    
    563000   297.83137     -444064.03     -440517.36      273.89559      51.607972      58.586019    
    564000   299.96889     -444089.31     -440517.18      276.09132      50.335513      58.459088    
    565000   295.64423     -444036.81     -440516.18      280.37039      50.750822      58.342296    
    566000   302.81301     -444122.91     -440516.91      285.12096      54.184483      58.280239    
    567000   300.71903     -444098.41     -440517.34      291.3002       41.103058      58.027634    
    568000   301.25504     -444104.47     -440517.02      296.41342      45.588789      57.847361    
    569000   300.21864     -444092.75     -440517.65      298.29985      44.073931      57.650597    
    570000   303.08247     -444127.31     -440518.1       299.55778      46.110838      57.488065    
    571000   300.22803     -444092.62     -440517.41      305.502        30.803004      57.11744     
    572000   297.83406     -444063.84     -440517.14      307.24898      45.164882      56.953706    
    573000   296.94903     -444052.72     -440516.55      310.99129      47.527107      56.826319    
    574000   302.04671     -444113.38     -440516.5       315.72823      52.440829      56.767846    
    575000   295.20087     -444032.12     -440516.77      320.97955      58.103982      56.785427    
    576000   301.09104     -444102.47     -440516.98      324.86404      51.227037      56.71324     
    577000   297.54198     -444060.62     -440517.4       329.69331      55.160423      56.693332    
    578000   293.98619     -444018.34     -440517.46      330.79878      53.514419      56.653093    
    579000   299.50692     -444084.28     -440517.65      335.15598      47.444074      56.53798     
    580000   299.22294     -444080.69     -440517.44      341.14447      54.601001      56.514067    
    581000   296.01171     -444041.19     -440516.18      346.07226      42.108952      56.338395    
    582000   300.05477     -444090.38     -440517.22      352.774        54.885566      56.320891    
    583000   301.67412     -444109.28     -440516.84      359.54873      71.707385      56.504063    
    584000   298.81776     -444075.03     -440516.61      361.19057      56.918865      56.508943    
    585000   295.48008     -444034.94     -440516.26      366.69748      54.36978       56.484069    
    586000   296.60458     -444048.69     -440516.62      370.10011      61.412775      56.540721    
    587000   301.27485     -444104.72     -440517.04      375.7396       69.967213      56.693295    
    588000   299.36906     -444082.22     -440517.23      382.90644      77.425113      56.926237    
    589000   299.97044     -444089.28     -440517.13      385.32712      66.159374      57.028827    
    590000   298.69365     -444074.22     -440517.27      388.27411      56.394508      57.021856    
    591000   298.73665     -444074.66     -440517.2       390.185        62.568229      57.082143    
    592000   296.85782     -444051.19     -440516.1       395.55354      60.605792      57.120032    
    593000   297.87364     -444063.31     -440516.13      397.9402       74.236759      57.302125    
    594000   298.04129     -444065.03     -440515.86      405.93204      64.868541      57.381771    
    595000   301.68553     -444110.03     -440517.46      410.40359      61.078286      57.420276    
    596000   301.01551     -444101.34     -440516.75      412.78942      66.71024       57.516049    
    597000   300.14908     -444091.16     -440516.88      420.55528      61.536366      57.557073    
    598000   303.66183     -444133.62     -440517.52      424.3104       65.387355      57.636167    
    599000   297.88591     -444064.06     -440516.74      429.43033      78.821184      57.848017    
    600000   301.31163     -444104.88     -440516.75      431.17151      60.41751       57.873457    
    601000   296.08262     -444042.56     -440516.71      433.12902      47.149914      57.768325    
    602000   294.57287     -444024.62     -440516.75      435.20559      63.230344      57.821354    
    603000   296.70735     -444049.97     -440516.68      439.93742      64.809888      57.888551    
    604000   304.24933     -444140.59     -440517.49      445.00462      50.835668      57.821381    
    605000   294.41565     -444022.06     -440516.06      449.151        64.960768      57.888734    
    606000   301.75801     -444111.19     -440517.75      453.38674      55.057687      57.862275    
    607000   296.97853     -444054.03     -440517.51      460.37048      52.58518       57.813413    
    608000   301.81151     -444111.66     -440517.58      462.33028      45.485463      57.700313    
    609000   299.42916     -444082.56     -440516.86      465.64913      33.336588      57.478825    
    610000   301.43656     -444106.59     -440516.99      469.64951      34.435169      57.271224    
    611000   301.96679     -444113.06     -440517.14      471.60809      52.139157      57.225402    
    612000   300.2866      -444093.72     -440517.81      479.69302      52.757561      57.185864    
    613000   299.58642     -444085.34     -440517.77      485.38728      43.760353      57.068096    
    614000   297.09078     -444054.84     -440516.99      487.97075      41.747185      56.934871    
    615000   298.0315      -444067        -440517.94      492.47051      55.054556      56.918661    
    616000   299.73315     -444086.56     -440517.24      497.28503      49.489095      56.85516     
    617000   301.7384      -444110.03     -440516.83      502.26263      43.490635      56.741902    
    618000   300.92431     -444100.88     -440517.37      507.3546       39.635388      56.59815     
    619000   301.99351     -444113.84     -440517.6       508.92703      43.064923      56.485373    
    620000   306.3202      -444166.06     -440518.3       516.38181      43.160673      56.375251    
    621000   298.91322     -444076.59     -440517.03      519.41739      52.444097      56.343029    
    622000   295.8661      -444039.84     -440516.57      524.36175      52.220748      56.309514    
    623000   298.14126     -444067.31     -440516.95      529.64235      49.307682      56.253048    
    624000   300.40758     -444094.53     -440517.18      534.18745      70.834767      56.369702    
    625000   301.82675     -444111.66     -440517.4       538.69659      61.604836      56.41125     
    626000   293.21678     -444008.41     -440516.68      542.87813      62.512752      56.459294    
    627000   299.24838     -444081.31     -440517.76      544.77994      71.852797      56.579555    
    628000   297.94304     -444065.41     -440517.4       546.53562      69.345162      56.678513    
    629000   298.96896     -444077.34     -440517.12      553.04522      77.30565       56.837184    
    630000   297.88363     -444065.25     -440517.95      557.26851      76.680286      56.988658    
    631000   304.88207     -444147.84     -440517.21      559.67346      54.804303      56.97211     
    632000   299.74073     -444086.59     -440517.18      564.47126      63.1272        57.018389    
    633000   306.7211      -444170.25     -440517.71      566.69875      53.093588      56.989099    
    634000   296.85832     -444051.62     -440516.54      568.11538      58.501086      57.000299    
    635000   304.60269     -444145.19     -440517.88      572.38953      77.87821       57.153813    
    636000   297.28377     -444057.69     -440517.53      574.65503      64.69739       57.208876    
    637000   299.52828     -444084.56     -440517.68      580.97079      60.207254      57.230603    
    638000   298.11343     -444067.44     -440517.4       588.95897      56.648516      57.226415    
    639000   296.67444     -444049.91     -440517.01      591.02591      58.670325      57.236729    
    640000   305.71989     -444157.56     -440516.95      594.96153      75.074615      57.363239    
    641000   299.94289     -444090.12     -440518.3       599.81195      72.652122      57.470907    
    642000   295.46108     -444035.44     -440516.99      605.53898      84.935387      57.662966    
    643000   299.6748      -444085.59     -440516.97      607.24399      76.965368      57.797011    
    644000   300.73757     -444099.06     -440517.78      611.94792      64.431362      57.842765    
    645000   300.1955      -444091.5      -440516.67      616.58825      60.188664      57.858833    
    646000   301.46305     -444107.62     -440517.7       621.28307      51.305367      57.814251    
    647000   300.54377     -444096.19     -440517.21      626.10546      59.416683      57.825078    
    648000   296.54851     -444048.09     -440516.69      631.86818      56.411089      57.815589    
    649000   303.35358     -444129.53     -440517.09      637.68021      53.066977      57.783931    
    650000   301.96376     -444113.22     -440517.33      642.83965      46.827942      57.711375    
    651000   300.35352     -444094.31     -440517.6       645.7757       49.280882      57.655911    
    652000   296.6611      -444049.34     -440516.6       651.11926      60.737135      57.67605     
    653000   302.0185      -444114.53     -440517.99      655.97591      41.851166      57.573291    
    654000   301.58345     -444109        -440517.64      662.77324      43.379865      57.48172     
    655000   296.2859      -444044.56     -440516.29      667.1996       44.793788      57.400388    
    656000   295.94357     -444041        -440516.8       672.80879      49.021163      57.347017    
    657000   298.19398     -444068.22     -440517.22      674.08672      69.444521      57.423583    
    658000   300.78166     -444098.97     -440517.16      680.83854      59.7973        57.438512    
    659000   298.09689     -444066.69     -440516.85      689.05779      66.584866      57.495677    
    660000   299.84198     -444087.34     -440516.72      691.59814      66.515049      57.551698    
    661000   303.26696     -444128.62     -440517.22      695.26133      55.378833      57.538285    
    662000   297.9698      -444065.84     -440517.52      699.21967      52.727594      57.508772    
    663000   295.52672     -444035.78     -440516.55      701.20744      70.594429      57.588562    
    664000   297.94824     -444064.09     -440516.03      706.41743      76.581197      57.703669    
    665000   299.23482     -444081.28     -440517.89      711.85632      61.099962      57.724129    
    666000   297.86151     -444063.62     -440516.59      716.70375      74.698677      57.825773    
    667000   293.11357     -444007.69     -440517.19      725.92113      76.350529      57.936039    
    668000   300.72134     -444097.66     -440516.57      731.53448      74.807805      58.035872    
    669000   294.61365     -444024.88     -440516.52      732.80168      51.388317      57.996769    
    670000   297.14768     -444055.38     -440516.84      738.65569      53.152064      57.968437    
    671000   294.86454     -444028.44     -440517.09      740.1034       51.759647      57.93234     
    672000   302.5173      -444119.31     -440516.83      744.04148      64.612234      57.970952    
    673000   299.21042     -444079.66     -440516.56      747.74473      71.003701      58.045853    
    674000   301.45934     -444106.31     -440516.43      751.13281      60.925682      58.062309    
    675000   301.31737     -444105.22     -440517.03      755.74062      62.671514      58.088497    
    676000   294.53597     -444024.72     -440517.29      759.83705      56.445837      58.079217    
    677000   301.02884     -444101.88     -440517.12      763.69945      64.804705      58.117       
    678000   298.65332     -444073.22     -440516.75      769.82722      45.062581      58.044071    
    679000   300.46454     -444095.66     -440517.62      773.82019      50.882865      58.004286    
    680000   294.81228     -444026.88     -440516.15      782.00626      43.300318      57.923049    
    681000   297.8836      -444065.06     -440517.76      789.25046      64.345051      57.958335    
    682000   301.4612      -444106.84     -440516.94      793.51712      62.148598      57.981232    
    683000   297.40133     -444058.31     -440516.76      795.8491       60.95373       57.997387    
    684000   302.8239      -444123.12     -440517         801.56379      66.00593       58.040677    
    685000   296.5115      -444047.62     -440516.67      810.52219      59.298545      58.047439    
    686000   297.4987      -444059.25     -440516.54      818.14621      55.619284      58.034454    
    687000   297.07226     -444054.94     -440517.3       819.80073      63.990573      58.066136    
    688000   293.93227     -444016.5      -440516.26      828.53995      45.316629      57.998678    
    689000   300.69014     -444097.03     -440516.31      830.44878      53.73561       57.976241    
    690000   301.05243     -444102.25     -440517.22      836.759        35.789412      57.86008     
    691000   297.71881     -444061.72     -440516.38      842.81896      56.217605      57.851525    
    692000   297.17705     -444055.44     -440516.55      847.34108      42.016055      57.769476    
    693000   303.66518     -444133.72     -440517.57      849.31202      53.780688      57.748915    
    694000   295.8154      -444038.94     -440516.27      850.51944      50.060987      57.70949     
    695000   301.29738     -444104.69     -440516.74      852.42985      57.76138       57.709755    
    696000   307.4845      -444178.41     -440516.78      854.17419      43.005069      57.635112    
    697000   301.31445     -444104.75     -440516.6       856.58499      36.930848      57.530545    
    698000   296.00052     -444040.66     -440515.78      861.42901      37.432368      57.429549    
    699000   293.27512     -444008.78     -440516.36      866.26045      55.24388       57.41862     
    700000   298.04512     -444066.31     -440517.09      871.48934      45.231499      57.357988    
    701000   298.1122      -444066.75     -440516.73      879.84116      47.17409       57.307573    
    702000   306.51464     -444167.47     -440517.39      887.57388      59.966105      57.320669    
    703000   300.08181     -444091.06     -440517.59      889.458        79.449583      57.429144    
    704000   297.80212     -444064.66     -440518.33      897.44261      70.489859      57.492855    
    705000   298.29264     -444068.97     -440516.8       905.23307      77.155288      57.588303    
    706000   301.46145     -444107.28     -440517.38      909.47374      76.228927      57.678355    
    707000   296.79727     -444050.06     -440515.7       913.81827      55.391332      57.667359    
    708000   299.36836     -444081.28     -440516.3       921.51669      78.479761      57.76694     
    709000   296.81768     -444051.69     -440517.08      922.87887      82.878351      57.886518    
    710000   302.32611     -444116.75     -440516.55      926.69795      92.515079      58.050635    
    711000   298.62525     -444072.81     -440516.68      931.43494      74.911071      58.130165    
    712000   297.89351     -444063.81     -440516.4       939.47834      72.870929      58.199371    
    713000   303.27896     -444128.44     -440516.89      943.60534      71.083088      58.259575    
    714000   299.33562     -444081.28     -440516.69      952.50619      67.915652      58.304487    
    715000   299.04213     -444078.41     -440517.31      959.15865      55.33145       58.290723    
    716000   300.75862     -444097.53     -440516         963.98107      67.159884      58.331595    
    717000   296.60547     -444048.59     -440516.52      970.98596      76.183407      58.413484    
    718000   301.89408     -444112        -440516.94      979.0968       71.023394      58.471063    
    719000   300.82362     -444099.22     -440516.91      980.99519      50.529461      58.434965    
    720000   297.63498     -444060.72     -440516.38      985.95335      59.718997      58.440775    
    721000   301.4048      -444106.12     -440516.9       988.20353      58.23108       58.439831    
    722000   299.66544     -444086.12     -440517.61      991.51769      66.096521      58.474165    
    723000   300.61282     -444097.31     -440517.51      996.17687      50.901912      58.440361    
    724000   298.02091     -444065.41     -440516.47      997.63832      62.230038      58.457204    
    725000   297.52456     -444059.12     -440516.1       1001.7472      59.871185      58.46346     
    726000   299.87373     -444087.81     -440516.82      1005.6092      74.075576      58.532236    
    727000   298.70299     -444074.53     -440517.48      1007.7269      54.90795       58.51634     
    728000   297.22153     -444057.03     -440517.62      1009.7647      57.643045      58.512527    
    729000   296.31752     -444045.34     -440516.7       1015.9206      29.912903      58.38818     
    730000   304.47082     -444143.44     -440517.7       1017.7001      43.005013      58.321587    
    731000   296.59369     -444049.06     -440517.13      1023.2963      56.469922      58.313605    
    732000   300.74501     -444098.03     -440516.66      1029.2986      45.002065      58.256474    
    733000   303.25768     -444129.34     -440518.05      1030.7725      47.908397      58.212252    
    734000   301.81423     -444111.59     -440517.49      1035.4956      36.99312       58.121958    
    735000   297.78499     -444062.91     -440516.78      1040.4489      47.059214      58.075082    
    736000   297.81952     -444063.97     -440517.43      1047.6475      45.584377      58.022378    
    737000   299.77889     -444087.06     -440517.19      1053.0279      53.362431      58.002799    
    738000   294.14096     -444020.03     -440517.3       1060.5259      46.341405      57.954006    
    739000   299.48042     -444082.28     -440515.97      1062.614       36.663845      57.865297    
    740000   300.92126     -444100.47     -440517         1067.5337      42.092558      57.79985     
    741000   299.97469     -444088.5      -440516.3       1072.4675      45.904981      57.750698    
    742000   298.85627     -444076.09     -440517.21      1074.5728      34.769239      57.656124    
    743000   296.80163     -444051.41     -440516.99      1082.1456      41.502229      57.589919    
    744000   298.55556     -444071.66     -440516.36      1083.5163      34.774879      57.496797    
    745000   300.7176      -444097.5      -440516.45      1089.4681      44.930563      57.445714    
    746000   302.62042     -444120        -440516.29      1094.9387      46.044429      57.399555    
    747000   295.77219     -444039.06     -440516.91      1096.7698      56.744054      57.396912    
    748000   300.16315     -444091.53     -440517.09      1104.4924      29.475127      57.284777    
    749000   301.87389     -444111.22     -440516.4       1109.0466      47.933274      57.247371    
    750000   302.79128     -444122.78     -440517.04      1111.028       37.412104      57.168346    
    751000   292.90998     -444004.5      -440516.43      1117.5316      39.387718      57.097787    
    752000   297.7537      -444062.53     -440516.78      1121.7109      50.041589      57.069897    
    753000   299.64958     -444085.41     -440517.08      1123.2453      45.506414      57.024372    
    754000   297.80318     -444063.16     -440516.82      1129.1141      29.269325      56.915529    
    755000   297.69029     -444061.34     -440516.35      1134.2954      40.017902      56.849522    
    756000   296.82966     -444051.59     -440516.85      1136.1437      41.803617      56.790978    
    757000   304.38428     -444142.5      -440517.79      1138.2016      49.109353      56.761204    
    758000   299.21346     -444080.16     -440517.02      1140.4282      43.755038      56.710987    
    759000   302.54527     -444119.75     -440516.94      1145.3013      52.351811      56.694221    
    760000   297.95558     -444065.31     -440517.16      1147.0501      44.984308      56.649356    
    761000   295.29463     -444033.22     -440516.75      1152.2695      51.650368      56.630275    
    762000   299.28703     -444081        -440516.99      1158.7859      52.364013      56.614054    
    763000   297.42206     -444059.12     -440517.32      1164.7449      45.874502      56.573374    
    764000   299.28437     -444081.69     -440517.71      1171.3642      37.895498      56.502891    
    765000   300.68038     -444097.88     -440517.27      1175.5818      60.477518      56.517833    
    766000   302.05003     -444114.03     -440517.12      1181.861       67.157272      56.557682    
    767000   296.29954     -444045.84     -440517.41      1188.0118      67.445819      56.598309    
    768000   301.81005     -444111.66     -440517.6       1196.4521      66.155982      56.633839    
    769000   297.13347     -444056.06     -440517.7       1201.1031      55.979783      56.631417    
    770000   304.05901     -444137.78     -440516.94      1206.1049      59.368829      56.641518    
    771000   300.36358     -444093.5      -440516.67      1207.8797      62.988472      56.664852    
    772000   298.49729     -444071.34     -440516.74      1214.6599      49.021309      56.636854    
    773000   298.58544     -444072.38     -440516.72      1218.9181      58.505406      56.643674    
    774000   304.50111     -444143.34     -440517.24      1226.7731      60.157726      56.656452    
    775000   302.0622      -444114.19     -440517.13      1233.2609      68.89704       56.700802    
    776000   299.25459     -444080.75     -440517.13      1239.7501      48.489048      56.671157    
    777000   298.43531     -444071.19     -440517.32      1244.2148      31.347705      56.580065    
    778000   299.47779     -444083.78     -440517.5       1249.2596      50.390078      56.557879    
    779000   299.83895     -444087.81     -440517.23      1258.3517      56.287589      56.556913    
    780000   300.90691     -444098.94     -440515.64      1262.9373      64.344972      56.584629    
    781000   301.10139     -444102.88     -440517.26      1268.0191      60.505819      56.598534    
    782000   298.1312      -444067.34     -440517.1       1273.3304      56.533524      56.598304    
    783000   297.78666     -444062.56     -440516.42      1279.687       65.013513      56.627935    
    784000   300.23299     -444093.47     -440518.19      1284.4271      55.458514      56.623832    
    785000   291.64976     -443989.25     -440516.19      1285.9584      67.827536      56.663006    
    786000   304.18452     -444139.62     -440517.29      1288.7397      65.048834      56.692225    
    787000   300.47204     -444094.47     -440516.35      1293.6556      70.052885      56.738616    
    788000   299.54444     -444083.91     -440516.83      1298.2839      66.999821      56.774122    
    789000   302.42899     -444120.03     -440518.61      1303.9969      59.910301      56.784936    
    790000   296.52943     -444048.03     -440516.86      1305.6804      74.468557      56.845705    
    791000   299.41735     -444082.16     -440516.59      1307.3781      72.467102      56.899203    
    792000   300.98802     -444100.84     -440516.58      1311.161       75.399393      56.962343    
    793000   301.85541     -444112.78     -440518.19      1317.7922      53.01498       56.948917    
    794000   301.55568     -444107.44     -440516.41      1319.2727      65.126214      56.976636    
    795000   301.63597     -444109.38     -440517.39      1327.7178      51.972327      56.95973     
    796000   299.12763     -444079.97     -440517.86      1329.7621      54.266059      56.95066     
    797000   300.94029     -444100.19     -440516.49      1331.9103      68.060474      56.987942    
    798000   298.53532     -444072.03     -440516.97      1335.8536      65.769374      57.017311    
    799000   298.44517     -444070.38     -440516.39      1337.8283      54.25576       57.008106    
    800000   295.05522     -444030.56     -440516.95      1343.4181      62.21952       57.025419    
    801000   301.40535     -444105.84     -440516.61      1344.8097      64.192426      57.049151    
    802000   296.24915     -444044.47     -440516.63      1350.0246      57.985051      57.05224     
    803000   302.35774     -444117.41     -440516.83      1351.958       65.497583      57.080021    
    804000   296.01667     -444042.34     -440517.28      1356.0873      55.827732      57.075915    
    805000   300.35197     -444094.22     -440517.53      1358.0743      46.512243      57.041393    
    806000   296.96602     -444054.22     -440517.85      1367.275       56.598092      57.039949    
    807000   301.28258     -444105.16     -440517.38      1372.8473      62.935178      57.059089    
    808000   299.35616     -444081.88     -440517.04      1381.6737      59.214013      57.066063    
    809000   297.23761     -444056.62     -440517.02      1389.8125      58.060516      57.069271    
    810000   299.20567     -444080.09     -440517.05      1391.7191      62.896058      57.088007    
    811000   296.40205     -444045.91     -440516.25      1396.4126      58.784326      57.093444    
    812000   298.89841     -444076.28     -440516.9       1401.3999      54.772972      57.08603     
    813000   299.45656     -444084.12     -440518.1       1405.6972      54.447627      57.077628    
    814000   294.65729     -444025.25     -440516.37      1413.2618      46.028585      57.042551    
    815000   296.07555     -444041.88     -440516.11      1417.8019      49.094486      57.017399    
    816000   295.82213     -444039.59     -440516.84      1421.8723      53.133055      57.005146    
    817000   294.45711     -444023.31     -440516.82      1426.1559      47.414387      56.974986    
    818000   299.03544     -444077.62     -440516.61      1431.3491      64.22099       56.997701    
    819000   300.99529     -444101.62     -440517.27      1439.6425      62.911934      57.016183    
    820000   297.95753     -444065.31     -440517.13      1444.2716      63.603593      57.036704    
    821000   302.33919     -444116.94     -440516.58      1449.7143      58.144279      57.040144    
    822000   298.8115      -444075.91     -440517.56      1451.6785      65.368809      57.065929    
    823000   302.55564     -444120.59     -440517.66      1457.0315      63.215437      57.084909    
    824000   299.71459     -444086.19     -440517.09      1464.622       71.223415      57.128412    
    825000   301.37701     -444105.75     -440516.85      1471.644       68.40516       57.163004    
    826000   299.01687     -444078        -440517.21      1475.9647      71.538705      57.206966    
    827000   304.78574     -444146.84     -440517.35      1483.243       80.490529      57.277953    
    828000   304.10822     -444139.16     -440517.73      1488.5578      74.495682      57.330286    
    829000   299.15706     -444079.44     -440516.97      1492.1768      67.629928      57.361497    
    830000   297.85313     -444063.62     -440516.69      1499.0992      72.442989      57.40706     
    831000   300.66295     -444097.53     -440517.14      1502.6378      77.024476      57.466149    
    832000   300.32759     -444093.69     -440517.29      1504.9945      72.542879      57.511425    
    833000   295.97417     -444041.12     -440516.57      1513.3934      73.81003       57.560223    
    834000   301.847       -444112.03     -440517.54      1520.1643      55.689226      57.554638    
    835000   300.72948     -444098.31     -440517.12      1521.8939      81.044068      57.624547    
    836000   303.41584     -444130.81     -440517.63      1526.29        69.759636      57.660556    
    837000   298.84595     -444076.03     -440517.27      1530.6095      75.02677       57.711935    
    838000   301.85407     -444110.91     -440516.33      1538.3549      75.841521      57.765415    
    839000   297.22026     -444056.16     -440516.76      1542.756       74.033404      57.813262    
    840000   304.55294     -444143.84     -440517.12      1547.3709      77.546841      57.871132    
    841000   300.65463     -444097.31     -440517.02      1551.8589      89.768723      57.964399    
    842000   299.59549     -444085.16     -440517.47      1556.078       92.035266      58.063731    
    843000   301.00738     -444101.16     -440516.66      1557.525       83.045243      58.136352    
    844000   298.69507     -444073.62     -440516.66      1559.5538      57.667034      58.134992    
    845000   303.16202     -444127.66     -440517.5       1563.5816      54.169443      58.123531    
    846000   296.8267      -444051.47     -440516.76      1569.1895      61.249943      58.13254     
    847000   300.57714     -444095.25     -440515.88      1573.6001      63.521386      58.148026    
    848000   297.30168     -444057.88     -440517.51      1577.6453      52.022977      58.130475    
    849000   303.47062     -444130.84     -440517.01      1583.0569      55.268754      58.122299    
    850000   305.35445     -444153.06     -440516.8       1584.6043      63.181887      58.136714    
    851000   297.02494     -444053.91     -440516.83      1586.7667      46.052111      58.102382    
    852000   299.81041     -444087.84     -440517.6       1591.2154      49.162827      58.077058    
    853000   296.40384     -444045.59     -440515.92      1596.3324      56.764602      58.07335     
    854000   294.67299     -444025.78     -440516.72      1603.9262      40.327257      58.023361    
    855000   302.94609     -444124.44     -440516.85      1612.4945      57.386072      58.021571    
    856000   298.87778     -444076.38     -440517.24      1619.9037      61.716477      58.031921    
    857000   300.74792     -444098.91     -440517.5       1625.6212      73.47802       58.075067    
    858000   304.43222     -444142.22     -440516.94      1632.6892      62.927826      58.088584    
    859000   306.01993     -444161.47     -440517.28      1638.4941      68.129966      58.116477    
    860000   297.26185     -444057        -440517.11      1642.1248      66.605588      58.139992    
    861000   298.62        -444072.88     -440516.81      1643.4059      62.336943      58.151586    
    862000   305.27391     -444152.72     -440517.41      1652.0897      66.248644      58.173892    
    863000   301.88574     -444112.97     -440518.01      1656.397       59.187913      58.176678    
    864000   294.49511     -444022.19     -440515.24      1664.3568      64.22001       58.193235    
    865000   296.15218     -444043.72     -440517.04      1668.3214      69.764612      58.224851    
    866000   300.23682     -444093.03     -440517.71      1674.6557      72.986834      58.265074    
    867000   296.08385     -444043.19     -440517.32      1683.2338      71.06843       58.299866    
    868000   300.35709     -444094.03     -440517.28      1687.6428      63.858556      58.31493     
    869000   298.86512     -444075.56     -440516.58      1692.7294      58.294961      58.314876    
    870000   304.64689     -444144.69     -440516.85      1694.8023      88.446662      58.396094    
    871000   300.7215      -444097.69     -440516.59      1699.3844      70.533417      58.428721    
    872000   296.83995     -444051.59     -440516.72      1702.9212      63.443106      58.442165    
    873000   300.931       -444099.78     -440516.19      1710.8803      50.136123      58.419956    
    874000   296.25623     -444043.62     -440515.71      1717.8613      68.667087      58.447282    
    875000   299.7675      -444087.06     -440517.33      1719.1212      58.234192      58.446715    
    876000   301.17164     -444103.5      -440517.05      1720.7799      38.797587      58.394595    
    877000   298.54037     -444072.69     -440517.57      1729.4814      58.730955      58.395485    
    878000   303.85329     -444135.84     -440517.46      1736.4237      58.488328      58.39573     
    879000   294.9108      -444028.41     -440516.51      1739.7599      59.78134       58.399376    
    880000   298.67178     -444074.41     -440517.72      1748.0932      58.313178      58.39915     
    881000   300.32977     -444094.78     -440518.35      1751.8927      71.605442      58.433721    
    882000   298.48057     -444071.91     -440517.5       1758.6178      57.105587      58.430254    
    883000   299.27208     -444080.78     -440516.95      1765.9758      67.636303      58.454228    
    884000   303.65401     -444132.28     -440516.27      1773.1637      70.5487        58.485642    
    885000   302.26766     -444116.53     -440517.03      1776.3709      69.116104      58.513182    
    886000   302.62138     -444120.66     -440516.94      1780.2637      77.238426      58.561568    
    887000   304.5776      -444144.66     -440517.64      1784.6406      94.964773      58.65539     
    888000   302.40951     -444118.78     -440517.59      1792.2956      69.303027      58.682762    
    889000   302.29615     -444117.91     -440518.06      1798.87        64.064         58.69656     
    890000   299.12361     -444079.75     -440517.69      1803.1898      62.171656      58.705448    
    891000   297.07249     -444055.09     -440517.45      1807.9219      68.661908      58.730847    
    892000   297.5662      -444059.59     -440516.08      1809.642       86.095861      58.800478    
    893000   301.28069     -444104.75     -440517         1814.5162      67.990783      58.823804    
    894000   297.83778     -444063.84     -440517.09      1823.1832      73.736504      58.861558    
    895000   301.99551     -444113.06     -440516.8       1829.1739      82.674591      58.921691    
    896000   299.65492     -444084.97     -440516.58      1832.4584      79.798489      58.974278    
    897000   295.81012     -444039.25     -440516.64      1836.4821      87.30537       59.045461    
    898000   298.75917     -444075.06     -440517.34      1840.6274      100.28607      59.148821    
    899000   299.04028     -444078.06     -440516.99      1842.59        90.590817      59.227426    
    900000   302.76009     -444122.12     -440516.76      1847.9223      85.587456      59.293162    
    901000   298.45865     -444070.34     -440516.2       1855.4543      84.167412      59.355038    
    902000   299.38526     -444082.41     -440517.23      1860.2141      82.281226      59.411927    
    903000   302.58179     -444119.41     -440516.16      1866.6655      83.019855      59.470363    
    904000   301.23698     -444104.94     -440517.71      1874.2042      95.671204      59.559747    
    905000   297.11968     -444055.09     -440516.89      1880.2616      97.95283       59.654312    
    906000   298.2386      -444068.66     -440517.13      1881.939       76.864477      59.696597    
    907000   299.89631     -444088.44     -440517.17      1889.5952      85.188848      59.759078    
    908000   299.62881     -444084.56     -440516.48      1895.6432      82.913715      59.815691    
    909000   295.14041     -444031.38     -440516.74      1903.1918      86.725045      59.881323    
    910000   301.09229     -444103.16     -440517.65      1907.2513      80.476621      59.931434    
    911000   300.65839     -444096.44     -440516.1       1911.0728      76.416642      59.971446    
    912000   299.64308     -444084.56     -440516.31      1917.0878      81.622253      60.02387     
    913000   296.59873     -444048.16     -440516.16      1922.5235      75.945811      60.062328    
    914000   298.20069     -444067.38     -440516.3       1926.638       85.631323      60.12394     
    915000   300.61213     -444096.44     -440516.65      1928.3542      74.02731       60.157362    
    916000   299.19884     -444080.28     -440517.32      1932.4359      69.57226       60.17994     
    917000   304.3712      -444141.88     -440517.32      1936.8683      58.43461       60.175764    
    918000   299.38584     -444081.47     -440516.28      1940.05        85.889141      60.237133    
    919000   298.55846     -444072.59     -440517.26      1944.3391      68.721331      60.257333    
    920000   295.67815     -444037.06     -440516.03      1949.3289      80.66811       60.305815    
    921000   300.31146     -444093.84     -440517.63      1955.0907      63.884205      60.314294    
    922000   292.03389     -443994.09     -440516.46      1956.6766      76.911311      60.353531    
    923000   299.17611     -444079.75     -440517.06      1958.4008      61.664435      60.356623    
    924000   302.47059     -444119.62     -440517.7       1963.2567      57.967137      60.351       
    925000   294.25158     -444020.19     -440516.14      1967.9587      59.349537      60.348649    
    926000   302.46147     -444119.28     -440517.47      1971.5288      63.293156      60.355545    
    927000   296.11788     -444042.41     -440516.13      1980.2985      91.058609      60.427281    
    928000   301.24101     -444104.78     -440517.5       1982.286       74.510141      60.460109    
    929000   301.38763     -444105.72     -440516.69      1984.0002      78.771994      60.502694    
    930000   297.77439     -444062.69     -440516.69      1987.1045      74.16594       60.534396    
    931000   301.29029     -444105.03     -440517.17      1991.1395      73.525034      60.564467    
    932000   297.84574     -444063.81     -440516.97      1996.548       47.544959      60.534398    
    933000   298.59081     -444072.62     -440516.91      2001.8935      56.91578       60.526061    
    934000   299.87201     -444087.78     -440516.8       2009.9829      68.852167      60.545201    
    935000   303.21025     -444127.53     -440516.8       2011.8084      70.974912      60.569122    
    936000   299.30105     -444081.56     -440517.39      2013.1081      63.512799      60.575858    
    937000   298.9023      -444076.69     -440517.26      2021.972       62.53541       60.580332    
    938000   301.86732     -444111.88     -440517.14      2028.4664      65.462937      60.591454    
    939000   298.85824     -444074.97     -440516.06      2034.7674      60.515807      60.591283    
    940000   303.92007     -444136.91     -440517.72      2038.7739      74.512182      60.622849    
    941000   298.00715     -444066        -440517.23      2039.9925      71.321749      60.647055    
    942000   302.79258     -444122.91     -440517.15      2041.8163      66.839606      60.661034    
    943000   294.99604     -444029.47     -440516.56      2047.7534      58.612565      60.65642     
    944000   297.70662     -444063        -440517.81      2049.6811      63.213037      60.662165    
    945000   297.74056     -444062        -440516.41      2054.4601      61.740693      60.664583    
    946000   299.10774     -444078.59     -440516.72      2058.2709      60.776086      60.664833    
    947000   294.1208      -444019.62     -440517.14      2063.1865      56.317114      60.655128    
    948000   299.73475     -444086.72     -440517.38      2064.6076      68.866576      60.673416    
    949000   304.48747     -444142.69     -440516.75      2068.5036      79.242565      60.714681    
    950000   299.55413     -444084.34     -440517.15      2074.947       61.145903      60.715637    
    951000   301.93166     -444111.94     -440516.43      2079.4697      79.356126      60.756877    
    952000   300.19952     -444092.03     -440517.15      2083.5499      76.387099      60.791381    
    953000   298.06659     -444065.22     -440515.74      2087.7749      70.60689       60.813001    
    954000   302.40886     -444118.28     -440517.09      2093.1681      86.155689      60.868699    
    955000   294.76795     -444026.56     -440516.37      2097.7612      74.341842      60.898246    
    956000   306.53296     -444168.09     -440517.8       2099.1654      72.571549      60.923789    
    957000   300.07169     -444089.97     -440516.61      2100.8978      68.831308      60.941054    
    958000   296.61726     -444049.25     -440517.03      2105.8329      64.159717      60.948067    
    959000   301.22364     -444103.53     -440516.46      2112.2002      63.03335       60.9526      
    960000   299.97183     -444089.34     -440517.18      2114.0305      66.358431      60.964326    
    961000   296.59463     -444048.81     -440516.86      2116.4465      58.108452      60.958145    
    962000   295.1758      -444030.75     -440515.7       2124.0226      55.459702      60.946269    
    963000   293.27497     -444009.59     -440517.18      2131.3687      76.390563      60.979554    
    964000   301.71788     -444109.59     -440516.64      2132.8275      69.713916      60.998338    
    965000   295.69464     -444038.34     -440517.11      2135.3217      61.485618      60.999383    
    966000   299.2439      -444079.97     -440516.47      2142.9761      56.207344      60.989122    
    967000   303.18048     -444128.12     -440517.75      2147.3463      57.310449      60.981262    
    968000   296.51691     -444048.47     -440517.45      2149.9769      60.153139      60.979496    
    969000   298.09663     -444066.72     -440516.88      2158.3242      66.287286      60.990789    
    970000   298.21518     -444069.03     -440517.78      2167.306       70.884523      61.011795    
    971000   298.15388     -444066.84     -440516.33      2171.7329      65.204932      61.020679    
    972000   302.51603     -444120.16     -440517.69      2177.588       69.411379      61.038418    
    973000   300.09239     -444090.28     -440516.68      2184.7308      84.405897      61.087716    
    974000   296.89701     -444052.88     -440517.33      2188.913       66.856295      61.099861    
    975000   299.00246     -444077.47     -440516.85      2191.2923      65.901527      61.109948    
    976000   302.55961     -444120.31     -440517.33      2192.9156      66.258885      61.120743    
    977000   301.84191     -444111.97     -440517.53      2196.7744      58.84279       61.115977    
    978000   301.03533     -444102.34     -440517.51      2203.7176      59.712609      61.113047    
    979000   295.72917     -444036.84     -440515.2       2210.7332      63.101082      61.117189    
    980000   300.9278      -444100.84     -440517.29      2214.7976      46.351722      61.086492    
    981000   294.66672     -444025.94     -440516.95      2218.8316      68.674564      61.102235    
    982000   302.91353     -444124.84     -440517.65      2223.5236      57.29795       61.094358    
    983000   297.99335     -444065.25     -440516.65      2230.3456      61.979864      61.096188    
    984000   297.98539     -444066.06     -440517.55      2238.6453      67.766535      61.109941    
    985000   299.71763     -444085.91     -440516.77      2242.4136      59.785343      61.107216    
    986000   298.54741     -444072.16     -440516.95      2249.0983      63.177186      61.111466    
    987000   300.1252      -444091.03     -440517.04      2250.9565      79.061985      61.14825     
    988000   301.56929     -444108.88     -440517.69      2253.4126      68.846192      61.163992    
    989000   297.09198     -444055.41     -440517.54      2261.5315      55.267403      61.151958    
    990000   300.0962      -444091.28     -440517.63      2266.5901      51.752069      61.132814    
    991000   303.86203     -444136.12     -440517.63      2273.36        55.615302      61.121599    
    992000   297.75761     -444062.91     -440517.11      2279.5112      71.495332      61.142641    
    993000   301.63013     -444108.53     -440516.62      2285.8369      52.186353      61.124511    
    994000   296.31199     -444044.97     -440516.39      2292.4537      55.896744      61.11395     
    995000   298.75234     -444074.41     -440516.76      2296.6352      56.781379      61.105215    
    996000   299.97188     -444088.69     -440516.52      2303.2449      72.112804      61.127363    
    997000   297.2612      -444056.91     -440517.02      2307.8987      78.009026      61.161262    
    998000   299.66974     -444085.28     -440516.71      2312.5477      74.790765      61.188576    
    999000   301.35215     -444105.62     -440517.02      2317.0499      70.558701      61.207316    
   1000000   299.20175     -444080.5      -440517.5       2319.1248      68.230765      61.221335    
Loop time of 13036.1 on 1 procs for 500000 steps with 3996 atoms

Performance: 1.657 ns/day, 14.485 hours/ns, 38.355 timesteps/s, 153.266 katom-step/s
100.0% CPU use with 1 MPI tasks x 1 OpenMP threads

MPI task timing breakdown:
Section |  min time  |  avg time  |  max time  |%varavg| %total
---------------------------------------------------------------
Pair    | 12468      | 12468      | 12468      |   0.0 | 95.64
Bond    | 0.16948    | 0.16948    | 0.16948    |   0.0 |  0.00
Neigh   | 17.506     | 17.506     | 17.506     |   0.0 |  0.13
Comm    | 12.147     | 12.147     | 12.147     |   0.0 |  0.09
Output  | 0.13471    | 0.13471    | 0.13471    |   0.0 |  0.00
Modify  | 507.63     | 507.63     | 507.63     |   0.0 |  3.89
Other   |            | 30.52      |            |       |  0.23

Nlocal:           3996 ave        3996 max        3996 min
Histogram: 1 0 0 0 0 0 0 0 0 0
Nghost:          16357 ave       16357 max       16357 min
Histogram: 1 0 0 0 0 0 0 0 0 0
Neighs:              0 ave           0 max           0 min
Histogram: 1 0 0 0 0 0 0 0 0 0
FullNghs:  3.16345e+06 ave 3.16345e+06 max 3.16345e+06 min
Histogram: 1 0 0 0 0 0 0 0 0 0

Total # of neighbors = 3163446
Ave neighs/atom = 791.65315
Ave special neighs/atom = 0
Neighbor list builds = 5600
Dangerous builds = 0
write_restart   kappa_restart_2
System init for write_restart ...
Total wall time: 3:37:16
