LAMMPS (22 Jul 2025)
KOKKOS mode with Kokkos version 4.6.2 is enabled
  will use up to 1 GPU(s) per node
  using 1 OpenMP thread(s) per MPI task
package kokkos
read_restart    kappa_restart_3
Reading restart file ...
  restart file = 22 Jul 2025, LAMMPS = 22 Jul 2025
  restoring atom style full/kk from restart
  orthogonal box = (0.71446759 0.71446759 0.71446759) to (36.662232 36.662232 36.662232)
  1 by 1 by 1 MPI processor grid
  pair style bamboo stores no restart info
  3996 atoms
Finding 1-2 1-3 1-4 neighbors ...
  special bond factors lj:    0        0        0       
  special bond factors coul:  0        0        0       
     0 = max # of 1-2 neighbors
     0 = max # of 1-3 neighbors
     0 = max # of 1-4 neighbors
     1 = max # of special neighbors
  special bonds CPU = 0.002 seconds
  read_restart CPU = 0.035 seconds

pair_style      bamboo 5.0 5.0 10.0 1
pair_coeff /mnt/bn/ai4s-hl/bamboo/bamboo_finetune/thermal-no-all-13-ft-03/k0r0/density_r2/k0r0-density_r2-0/checkpoints/finetune.pt H C O

neighbor        3.0 bin
neigh_modify	delay 0 check yes

compute         ke all ke/atom
variable        kB equal 0.0019872041       # Boltzmann const. (kcal/mol·K)
variable        temp atom c_ke/(1.5*${kB})  # per-atom temperature (K)
variable        temp atom c_ke/(1.5*0.0019872041)  

fix             1 all nve

compute         layers all chunk/atom bin/1d z lower 0.05 units reduced
fix             2 all ave/chunk 10 100 1000 layers v_temp file profile4.mp
fix             3 all thermal/conductivity 500 z 20

variable        tdiff equal f_2[11][3]-f_2[1][3]
thermo_style    custom step temp epair etotal f_3 v_tdiff
thermo_modify   colname f_3 E_delta colname v_tdiff dTemp_step

fix             ave all ave/time 1 1 1000 v_tdiff ave running
thermo_style    custom step temp epair etotal f_3 v_tdiff f_ave
WARNING: New thermo_style command, previous thermo_modify settings will be lost (src/code.byted.org/data/lammps_bamboo/src/output.cpp:912)
thermo_modify   colname f_3 E_delta colname v_tdiff dTemp_step colname f_ave dTemp

thermo          1000
run             500000
Unused restart file peratom fix info:
  fix style: STORE/ATOM, fix ID: layers_COMPUTE_STORE
Neighbor list info ...
  update: every = 1 steps, delay = 0 steps, check = yes
  max neighbors/atom: 2000, page size: 100000
  master list distance cutoff = 13
  ghost atom cutoff = 13
  binsize = 13, bins = 3 3 3
  1 neighbor lists, perpetual/occasional/extra = 1 0 0
  (1) pair bamboo/kk, perpetual
      attributes: full, newton off, kokkos_device
      pair build: full/bin/kk/device
      stencil: full/bin/3d
      bin: kk/device
WARNING: Fix STORE/ATOM not compatible with sending data in Kokkos communication (src/code.byted.org/data/lammps_bamboo/src/KOKKOS/comm_kokkos.cpp:766)
WARNING: Fix with atom-based arrays not compatible with sending data in Kokkos communication, switching to classic exchange/border communication (src/code.byted.org/data/lammps_bamboo/src/KOKKOS/comm_kokkos.cpp:779)
WARNING: Fix STORE/ATOM not compatible with Kokkos sorting on device (src/code.byted.org/data/lammps_bamboo/src/KOKKOS/atom_kokkos.cpp:212)
WARNING: Fix with atom-based arrays not compatible with Kokkos sorting on device, switching to classic host sorting (src/code.byted.org/data/lammps_bamboo/src/KOKKOS/atom_kokkos.cpp:218)
Per MPI rank memory allocation (min/avg/max) = 8.713 | 8.713 | 8.713 Mbytes
   Step          Temp          E_pair         TotEng        E_delta       dTemp_step       dTemp     
   1500000   295.60603     -444036        -440515.82      0              0              0            
   1501000   297.83206     -444061.62     -440514.94      1.7041292      30.53375       15.266875    
   1502000   299.62977     -444083.56     -440515.47      7.7602098      44.483064      25.005605    
   1503000   299.4288      -444080.12     -440514.43      13.035367      41.350731      29.091886    
   1504000   301.13787     -444099.81     -440513.76      17.882066      34.873029      30.248115    
   1505000   303.56623     -444129.69     -440514.72      21.609828      40.454907      31.949247    
   1506000   304.65816     -444143.59     -440515.62      26.492216      61.303976      36.142779    
   1507000   299.01533     -444076.22     -440515.44      32.527143      59.609051      39.076063    
   1508000   295.6985      -444035.22     -440513.94      36.563608      53.778978      40.709721    
   1509000   298.04504     -444063.22     -440514         42.823816      54.676849      42.106433    
   1510000   297.87811     -444061.69     -440514.45      44.389326      67.337281      44.400147    
   1511000   306.59306     -444167.09     -440516.08      48.639016      74.774593      46.931351    
   1512000   297.36755     -444055.84     -440514.69      53.222823      59.145861      47.870928    
   1513000   298.95673     -444074.53     -440514.45      58.551106      65.639606      49.14012     
   1514000   299.10505     -444077.16     -440515.31      63.866151      69.604159      50.504389    
   1515000   296.29894     -444042.81     -440514.39      68.115464      65.865048      51.46443     
   1516000   299.63334     -444082.41     -440514.27      70.445662      73.128092      52.738763    
   1517000   299.73017     -444084.16     -440514.87      78.343822      71.464513      53.779083    
   1518000   300.24203     -444089.75     -440514.37      82.082782      75.941318      54.945516    
   1519000   298.78741     -444072.75     -440514.69      86.909516      67.048935      55.550687    
   1520000   294.04019     -444017        -440515.47      91.697272      62.787381      55.895291    
   1521000   297.37187     -444055.91     -440514.7       93.21343       53.546914      55.788547    
   1522000   296.92846     -444050.84     -440514.92      97.982677      52.772634      55.65742     
   1523000   293.80942     -444013.19     -440514.41      105.53473      66.178008      56.095778    
   1524000   298.21175     -444066.09     -440514.89      113.92734      79.146659      57.017813    
   1525000   293.74032     -444012.81     -440514.85      119.50953      89.84159       58.280266    
   1526000   297.03437     -444051.72     -440514.53      125.68542      87.146293      59.349379    
   1527000   298.58748     -444070.47     -440514.79      132.49638      79.182427      60.057702    
   1528000   303.33101     -444127.41     -440515.24      136.00991      80.912303      60.776826    
   1529000   301.68241     -444107.78     -440515.25      144.3092       61.50111       60.800969    
   1530000   302.36441     -444115.59     -440514.94      153.1995       59.90465       60.772055    
   1531000   301.79849     -444108.75     -440514.83      157.69032      78.317666      61.320355    
   1532000   303.83752     -444133.47     -440515.27      162.45551      69.846894      61.578735    
   1533000   297.22273     -444054.78     -440515.35      166.11713      76.683981      62.023007    
   1534000   298.38006     -444067.28     -440514.07      170.27987      66.348599      62.146596    
   1535000   300.03716     -444087.28     -440514.34      171.84615      85.194953      62.786828    
   1536000   300.57728     -444094.03     -440514.66      178.58905      83.589905      63.349073    
   1537000   303.00802     -444123.31     -440514.99      183.64543      91.855296      64.099237    
   1538000   301.3755      -444104.72     -440515.84      191.27188      78.740237      64.474647    
   1539000   294.5312      -444022.59     -440515.22      193.14807      72.017118      64.663209    
   1540000   298.16746     -444065.78     -440515.1       200.0315       70.688403      64.810165    
   1541000   303.29376     -444126.94     -440515.21      210.42769      76.567332      65.090098    
   1542000   302.77899     -444120.31     -440514.72      214.74041      81.937086      65.481888    
   1543000   298.67659     -444071.5      -440514.76      222.85996      74.314585      65.682631    
   1544000   298.74876     -444073.38     -440515.77      230.11439      66.808369      65.707647    
   1545000   300.52783     -444093.53     -440514.74      234.26869      60.853111      65.602114    
   1546000   300.07024     -444088.81     -440515.48      238.41474      76.342186      65.830626    
   1547000   298.52239     -444069.09     -440514.19      240.40361      78.640652      66.097502    
   1548000   297.40127     -444056        -440514.45      242.19994      75.850291      66.296538    
   1549000   298.40724     -444068.12     -440514.59      246.24142      81.359868      66.597805    
   1550000   301.52008     -444105.5      -440514.9       254.22599      80.665957      66.873651    
   1551000   294.95227     -444026.59     -440514.2       258.04984      81.742607      67.159592    
   1552000   299.81419     -444084.91     -440514.62      265.14486      71.269135      67.237131    
   1553000   300.49445     -444093.09     -440514.7       269.74963      75.486854      67.389904    
   1554000   300.36201     -444090.53     -440513.72      273.66722      72.945462      67.490914    
   1555000   301.59011     -444105.66     -440514.22      281.07814      62.336352      67.398868    
   1556000   297.65851     -444058.38     -440513.76      284.6625       72.11202       67.481555    
   1557000   300.78032     -444096.44     -440514.64      289.33671      69.381626      67.514315    
   1558000   299.47674     -444080.66     -440514.39      294.39964      77.395263      67.681788    
   1559000   296.72744     -444048.5      -440514.97      302.2808       72.815661      67.767353    
   1560000   299.05102     -444075.66     -440514.46      307.06179      78.51919       67.943613    
   1561000   299.96938     -444086.53     -440514.4       308.59233      72.692107      68.020201    
   1562000   299.5978      -444082.22     -440514.51      316.937        57.982359      67.86087     
   1563000   297.5288      -444057.47     -440514.4       319.34123      57.849146      67.704437    
   1564000   300.15745     -444089.25     -440514.87      320.36261      56.659126      67.534509    
   1565000   301.23103     -444102.56     -440515.4       325.01863      67.917315      67.540309    
   1566000   300.5938      -444094.28     -440514.71      331.9885       77.25482       67.685302    
   1567000   303.27296     -444126.66     -440515.18      334.76313      78.820306      67.849052    
   1568000   301.58784     -444105.5      -440514.09      342.84578      87.716831      68.136991    
   1569000   299.24828     -444078.34     -440514.79      344.84914      66.036501      68.106984    
   1570000   300.46691     -444092.78     -440514.72      346.54148      79.967745      68.274037    
   1571000   299.44192     -444080.5      -440514.64      349.27546      86.256672      68.523796    
   1572000   300.55595     -444093.44     -440514.32      354.10619      66.943167      68.502143    
   1573000   300.47287     -444093.16     -440515.02      356.53647      83.67082       68.707125    
   1574000   298.39716     -444068.25     -440514.84      361.20992      93.579053      69.038751    
   1575000   300.51336     -444094.66     -440516.04      366.11456      71.921872      69.076687    
   1576000   305.03643     -444148.59     -440516.12      368.45528      64.831152      69.02155     
   1577000   300.40858     -444091.78     -440514.41      370.74809      56.456686      68.860462    
   1578000   301.41294     -444104.66     -440515.33      372.63942      56.345752      68.702048    
   1579000   300.27784     -444091.66     -440515.85      379.20109      70.162149      68.720299    
   1580000   298.21935     -444065        -440513.7       381.027        75.025273      68.798139    
   1581000   301.271       -444102.28     -440514.64      384.97014      63.625226      68.735054    
   1582000   300.38323     -444091.5      -440514.44      386.60103      64.209278      68.680527    
   1583000   303.54446     -444130.41     -440515.7       391.26999      80.904197      68.826047    
   1584000   294.70133     -444023.94     -440514.53      396.94776      68.504425      68.822263    
   1585000   296.69584     -444047.84     -440514.69      401.72567      63.722653      68.762965    
   1586000   303.4976      -444129.62     -440515.47      405.73753      63.887306      68.706923    
   1587000   293.47974     -444008.66     -440513.8       411.05649      58.141107      68.586857    
   1588000   294.42429     -444020.12     -440514.02      417.50765      66.164689      68.559642    
   1589000   294.63136     -444023.5      -440514.93      425.52912      74.423437      68.624795    
   1590000   297.23998     -444054.81     -440515.18      429.94484      79.399945      68.743203    
   1591000   302.15906     -444113.75     -440515.54      435.19432      68.325344      68.738661    
   1592000   301.73909     -444108.19     -440514.98      439.74713      83.121919      68.89332     
   1593000   303.90339     -444134.25     -440515.27      448.42538      87.563075      69.091934    
   1594000   303.45844     -444128.81     -440515.13      452.87797      96.883795      69.38448     
   1595000   298.34396     -444067.16     -440514.38      457.26319      91.083654      69.610513    
   1596000   293.92998     -444013.62     -440513.41      461.72407      70.834188      69.623128    
   1597000   300.18178     -444089.34     -440514.68      467.93087      80.312362      69.732202    
   1598000   297.49408     -444058.12     -440515.47      473.50238      82.088506      69.857013    
   1599000   306.15447     -444160.59     -440514.8       481.79491      75.510385      69.913547    
   1600000   301.11313     -444100.47     -440514.71      488.97237      75.612374      69.969971    
   1601000   301.67523     -444106.81     -440514.36      494.31435      52.87688       69.802392    
   1602000   300.01074     -444086.31     -440513.68      498.78062      72.347693      69.827103    
   1603000   302.68243     -444119.5      -440515.06      506.3021       69.849         69.827314    
   1604000   301.52305     -444106.25     -440515.61      508.63503      47.918435      69.618658    
   1605000   300.23991     -444088.38     -440513.02      515.27801      57.201336      69.501513    
   1606000   300.30563     -444091.34     -440515.2       521.26593      48.977391      69.309699    
   1607000   297.99883     -444063.19     -440514.52      523.00249      49.147996      69.123017    
   1608000   301.25054     -444103        -440515.61      528.09274      54.244804      68.986519    
   1609000   299.2716      -444078.41     -440514.58      535.53565      48.142331      68.797027    
   1610000   299.55063     -444081.84     -440514.69      540.45309      33.35175       68.4777      
   1611000   301.91048     -444109.66     -440514.4       544.89714      37.927416      68.20493     
   1612000   297.71813     -444059.47     -440514.14      549.59923      32.311534      67.887289    
   1613000   304.02639     -444136.22     -440515.77      551.97529      38.008039      67.62519     
   1614000   297.90895     -444061.66     -440514.06      557.10605      44.65894       67.425484    
   1615000   300.13162     -444088.47     -440514.4       561.37696      43.665599      67.220657    
   1616000   298.92541     -444074.12     -440514.42      568.22098      52.34137       67.093484    
   1617000   299.42892     -444080.03     -440514.33      576.37372      44.676965      66.903513    
   1618000   294.56179     -444022.19     -440514.45      578.49147      46.910868      66.735508    
   1619000   297.50917     -444057.09     -440514.25      583.76112      56.690643      66.651801    
   1620000   302.02724     -444112.12     -440515.48      585.50334      63.741135      66.627746    
   1621000   301.05967     -444100.38     -440515.26      588.97528      53.809984      66.522682    
   1622000   299.5484      -444081.81     -440514.69      593.25036      59.999021      66.469644    
   1623000   298.97121     -444074.41     -440514.16      598.33242      59.29611       66.411793    
   1624000   302.03844     -444111.47     -440514.69      603.67253      67.238603      66.418407    
   1625000   303.96548     -444135.25     -440515.53      609.40249      56.328077      66.338325    
   1626000   298.23186     -444065.69     -440514.24      613.03739      52.405248      66.228616    
   1627000   298.0495      -444063.22     -440513.95      617.31506      51.624939      66.114525    
   1628000   295.77753     -444036.94     -440514.72      624.85562      46.386827      65.961597    
   1629000   302.64317     -444118.19     -440514.21      629.04386      38.303304      65.748841    
   1630000   303.41241     -444128.5      -440515.36      633.70538      45.760902      65.596261    
   1631000   292.65253     -443999.75     -440514.75      639.97545      46.72987       65.453334    
   1632000   300.42905     -444092.03     -440514.42      641.81307      58.061024      65.397753    
   1633000   297.46081     -444056.19     -440513.92      649.59656      41.23624       65.217443    
   1634000   298.47551     -444069.06     -440514.72      657.37442      50.841816      65.110957    
   1635000   301.42942     -444104.25     -440514.73      667.74282      51.585166      65.011502    
   1636000   300.30768     -444090.59     -440514.43      672.89804      60.198367      64.97637     
   1637000   298.9362      -444074.88     -440515.04      677.68625      55.681815      64.909018    
   1638000   294.88458     -444025.88     -440514.29      682.85226      49.540331      64.798452    
   1639000   295.17546     -444029.72     -440514.67      687.31666      59.893409      64.763416    
   1640000   304.53133     -444141.5      -440515.04      692.19249      60.808689      64.735368    
   1641000   301.60858     -444107.19     -440515.53      693.90991      57.434517      64.683954    
   1642000   295.82528     -444037.44     -440514.65      698.53351      68.70114       64.712046    
   1643000   302.23937     -444114.34     -440515.18      699.87931      54.823238      64.643374    
   1644000   298.4621      -444068.25     -440514.06      709.48774      42.233802      64.488825    
   1645000   301.66016     -444106.84     -440514.57      713.08076      55.51522       64.427362    
   1646000   299.7395      -444084.19     -440514.79      717.90526      52.487027      64.346135    
   1647000   300.31134     -444090.84     -440514.64      721.33996      72.843563      64.40355     
   1648000   301.16763     -444100.69     -440514.28      725.07819      59.376671      64.369813    
   1649000   301.06481     -444100.56     -440515.38      730.81541      70.64219       64.411629    
   1650000   297.7646      -444060.47     -440514.59      734.44314      66.731653      64.426993    
   1651000   296.78251     -444048.5      -440514.31      736.52993      76.926351      64.509226    
   1652000   299.18205     -444078.09     -440515.33      744.9296       58.185241      64.467893    
   1653000   299.47075     -444080.44     -440514.24      750.18783      72.768113      64.52179     
   1654000   299.71948     -444082.94     -440513.78      754.73166      62.578778      64.509255    
   1655000   302.15991     -444112.28     -440514.06      758.98541      59.280263      64.475735    
   1656000   295.33561     -444031.69     -440514.73      767.67714      59.708247      64.445369    
   1657000   293.26278     -444006.5      -440514.23      769.41022      58.626052      64.408538    
   1658000   301.42492     -444104.47     -440515         770.44175      58.26977       64.369929    
   1659000   302.276       -444114.25     -440514.65      774.52521      51.901367      64.292001    
   1660000   296.52417     -444045.91     -440514.8       780.08415      46.779956      64.183231    
   1661000   303.52441     -444128.41     -440513.94      781.97501      48.536677      64.086647    
   1662000   299.72943     -444083.31     -440514.03      789.22107      49.581857      63.99766     
   1663000   299.10092     -444076.94     -440515.14      793.22005      63.059871      63.991942    
   1664000   298.3424      -444068.19     -440515.43      795.32596      62.200817      63.981087    
   1665000   298.49875     -444069.12     -440514.5       798.98771      47.421682      63.881331    
   1666000   301.13093     -444100.53     -440514.56      806.02082      68.345823      63.908065    
   1667000   299.19298     -444077.53     -440514.64      809.95167      59.803582      63.883633    
   1668000   299.93258     -444086.38     -440514.68      815.62362      44.467601      63.768746    
   1669000   300.12865     -444088.56     -440514.53      820.97933      33.684544      63.59178     
   1670000   301.85587     -444109.41     -440514.81      825.8011       37.646779      63.440055    
   1671000   297.51635     -444058.09     -440515.17      832.99538      56.588216      63.400218    
   1672000   301.14745     -444101.44     -440515.27      836.9456       62.273583      63.393706    
   1673000   296.19668     -444041.34     -440514.13      838.73955      32.932827      63.218644    
   1674000   299.40694     -444079.22     -440513.78      843.12543      35.170565      63.058369    
   1675000   293.67208     -444011.38     -440514.23      845.03171      28.736166      62.863356    
   1676000   298.15797     -444064.59     -440514.03      847.18154      22.827669      62.637166    
   1677000   303.30289     -444127.22     -440515.39      856.21263      40.181827      62.511012    
   1678000   303.34781     -444127.81     -440515.44      860.3512       59.673147      62.495158    
   1679000   300.02049     -444087.44     -440514.69      862.12769      64.696858      62.50739     
   1680000   300.69056     -444095.94     -440515.21      866.19383      56.461843      62.473989    
   1681000   298.15083     -444065.56     -440515.08      870.75617      62.320106      62.473144    
   1682000   297.94752     -444063.09     -440515.03      872.28243      57.165093      62.444138    
   1683000   299.76055     -444084.81     -440515.16      880.02112      62.035956      62.44192     
   1684000   297.5394      -444057.53     -440514.33      881.95632      46.939907      62.358125    
   1685000   297.10393     -444053.12     -440515.11      887.18575      44.758931      62.263506    
   1686000   300.25195     -444090.78     -440515.28      892.57373      59.045204      62.246295    
   1687000   303.58093     -444130.44     -440515.29      899.63255      36.420799      62.108926    
   1688000   302.75235     -444120.56     -440515.29      903.86163      34.054882      61.960492    
   1689000   299.58686     -444082.53     -440514.95      906.46249      43.537056      61.863526    
   1690000   297.1252      -444052.06     -440513.8       912.02873      40.087444      61.749515    
   1691000   298.72703     -444072.41     -440515.06      918.7582       69.24056       61.788531    
   1692000   302.1476      -444113.78     -440515.71      922.70854      73.822429      61.850883    
   1693000   300.69735     -444095.25     -440514.44      927.95139      52.601011      61.803203    
   1694000   300.50397     -444093.84     -440515.34      935.29121      41.975029      61.70152     
   1695000   299.99356     -444087.66     -440515.23      939.03946      57.043577      61.677755    
   1696000   301.03911     -444100.25     -440515.38      940.79709      61.678101      61.677757    
   1697000   296.67451     -444047.53     -440514.63      942.96188      71.111356      61.725401    
   1698000   301.72243     -444108.31     -440515.3       948.13513      56.30891       61.698183    
   1699000   297.81855     -444061.81     -440515.29      952.91771      73.441927      61.756902    
   1700000   301.57804     -444105.91     -440514.61      960.31456      60.438628      61.750343    
   1701000   301.38256     -444104.03     -440515.07      961.94828      50.936744      61.69681     
   1702000   293.3171      -444007.34     -440514.43      966.10948      49.317008      61.635826    
   1703000   302.16539     -444113.25     -440514.96      967.93965      70.17119       61.677666    
   1704000   300.73905     -444095.34     -440514.04      975.52453      71.953434      61.727792    
   1705000   293.39129     -444008.47     -440514.67      979.73639      64.84144       61.742907    
   1706000   302.52818     -444117.91     -440515.3       983.81081      69.306122      61.779444    
   1707000   303.44976     -444128.38     -440514.79      990.20643      72.979565      61.833291    
   1708000   295.91617     -444038        -440514.13      993.67402      87.387263      61.955558    
   1709000   300.18295     -444088.53     -440513.85      996.4566       65.651131      61.973156    
   1710000   297.74978     -444060.06     -440514.36      997.61861      55.92872       61.94451     
   1711000   300.2022      -444089.44     -440514.53      1001.4328      40.710133      61.844348    
   1712000   298.44131     -444068.22     -440514.28      1003.1019      46.002593      61.769973    
   1713000   297.13122     -444052.25     -440513.91      1006.4208      37.231519      61.655308    
   1714000   290.90085     -443979.19     -440515.04      1008.054       45.345127      61.579446    
   1715000   302.69779     -444120.09     -440515.47      1016.4083      59.937371      61.571844    
   1716000   303.29967     -444126.44     -440514.64      1021.178       52.559033      61.53031     
   1717000   299.14523     -444076.91     -440514.58      1026.4761      52.559518      61.48916     
   1718000   300.39066     -444091.78     -440514.63      1030.6285      55.747687      61.462943    
   1719000   298.17201     -444065.19     -440514.46      1033.0872      51.392139      61.417167    
   1720000   301.03466     -444099.84     -440515.02      1034.5275      48.010172      61.356502    
   1721000   302.22594     -444113.53     -440514.52      1038.3329      70.9231        61.399594    
   1722000   301.68599     -444106.91     -440514.33      1044.7336      54.493994      61.368628    
   1723000   295.85381     -444037.34     -440514.22      1049.2178      72.306792      61.417459    
   1724000   300.026       -444087.5      -440514.69      1053.3891      77.652631      61.489615    
   1725000   296.21159     -444041.31     -440513.93      1054.9335      55.801418      61.464446    
   1726000   296.0484      -444040.72     -440515.27      1062.9891      37.898869      61.360633    
   1727000   300.05685     -444087.91     -440514.73      1067.3297      52.107917      61.320051    
   1728000   299.97612     -444086.44     -440514.22      1072.0827      61.722776      61.321809    
   1729000   301.7235      -444107.34     -440514.32      1076.9009      69.858099      61.358924    
   1730000   298.02385     -444063.09     -440514.13      1080.7805      61.13881       61.357971    
   1731000   304.10325     -444136.31     -440514.95      1082.229       67.080127      61.382635    
   1732000   298.80542     -444073.25     -440514.97      1084.2205      63.188026      61.390384    
   1733000   296.44713     -444044.09     -440513.9       1092.3319      48.168808      61.333881    
   1734000   303.60761     -444129.78     -440514.32      1100.6266      56.510528      61.313356    
   1735000   297.92032     -444061.94     -440514.2       1105.6044      63.402139      61.322207    
   1736000   302.49681     -444117.06     -440514.83      1110.4165      58.294514      61.309432    
   1737000   299.82356     -444084.84     -440514.44      1112.4543      56.239221      61.288129    
   1738000   302.15476     -444112.69     -440514.53      1118.3619      42.562933      61.209781    
   1739000   301.59192     -444105.91     -440514.45      1119.9429      50.227027      61.164019    
   1740000   297.91088     -444061.56     -440513.94      1121.6999      47.41852       61.106984    
   1741000   297.154       -444053.47     -440514.86      1129.9978      42.832933      61.031471    
   1742000   299.49257     -444081.38     -440514.92      1135.2845      44.019284      60.961462    
   1743000   301.34732     -444103.03     -440514.49      1137.2823      58.586452      60.951729    
   1744000   301.57722     -444106.12     -440514.84      1143.233       56.281765      60.932668    
   1745000   295.73903     -444035.97     -440514.21      1148.0385      63.850717      60.94453     
   1746000   299.86312     -444085.88     -440515         1154.5712      71.575931      60.987572    
   1747000   296.477       -444045.31     -440514.76      1159.0622      58.591776      60.977911    
   1748000   296.83828     -444049.06     -440514.21      1162.8533      73.329457      61.027516    
   1749000   302.77578     -444120.25     -440514.69      1167.2739      61.151739      61.028013    
   1750000   303.27917     -444126.88     -440515.32      1174.0811      60.329328      61.025229    
   1751000   300.53385     -444093.91     -440515.05      1181.2907      78.296498      61.093766    
   1752000   297.31392     -444054.5      -440513.99      1188.3884      70.183773      61.129695    
   1753000   305.31064     -444150.47     -440514.73      1190.8654      63.937423      61.140749    
   1754000   297.11088     -444053.97     -440515.87      1194.6792      46.847755      61.084698    
   1755000   300.23709     -444090        -440514.68      1200.2581      36.882814      60.990159    
   1756000   299.16525     -444076.97     -440514.41      1201.8909      38.801215      60.903821    
   1757000   296.02137     -444039.22     -440514.1       1207.3316      49.173823      60.858356    
   1758000   298.37849     -444068        -440514.81      1213.6688      51.157317      60.8209      
   1759000   297.43662     -444055.75     -440513.77      1217.5956      57.17954       60.806895    
   1760000   300.2523      -444091.19     -440515.68      1221.8792      63.596501      60.817583    
   1761000   297.5162      -444057.12     -440514.2       1224.3307      70.655751      60.855133    
   1762000   300.88722     -444097.06     -440514         1228.6083      68.920801      60.885801    
   1763000   297.58595     -444058.09     -440514.34      1235.5304      59.121816      60.879119    
   1764000   296.3667      -444043        -440513.77      1240.1934      44.717903      60.818134    
   1765000   297.90193     -444062.59     -440515.08      1244.9867      52.632302      60.78736     
   1766000   300.42174     -444092.28     -440514.76      1248.6295      47.739463      60.738491    
   1767000   301.5069      -444104.88     -440514.43      1253.2876      55.887149      60.720389    
   1768000   295.21412     -444029.94     -440514.43      1259.7578      68.603149      60.749693    
   1769000   301.22357     -444102.12     -440515.05      1263.6976      50.883048      60.71315     
   1770000   296.12486     -444040.59     -440514.24      1268.3694      54.714082      60.691013    
   1771000   301.63969     -444106.53     -440514.5       1272.7858      52.111721      60.659472    
   1772000   301.53354     -444105.75     -440514.99      1274.6701      49.384982      60.618173    
   1773000   299.9709      -444086.47     -440514.31      1281.0262      40.703877      60.545493    
   1774000   299.61312     -444082.34     -440514.45      1286.8698      28.288528      60.428195    
   1775000   296.08119     -444040.19     -440514.35      1293.7054      37.583434      60.345424    
   1776000   297.6741      -444059.72     -440514.92      1301.7034      42.385659      60.280588    
   1777000   305.02542     -444147.41     -440515.06      1305.7961      50.509174      60.245439    
   1778000   298.63478     -444070.78     -440514.54      1311.4964      53.06422       60.2197      
   1779000   302.27643     -444113.81     -440514.2       1316.2695      38.168818      60.140947    
   1780000   298.16108     -444065.34     -440514.74      1318.8879      47.533073      60.096079    
   1781000   298.99226     -444074.91     -440514.41      1325.5771      67.308282      60.121654    
   1782000   298.90849     -444073.62     -440514.12      1334.1303      72.531485      60.165505    
   1783000   301.03385     -444098.75     -440513.94      1338.8178      77.967784      60.228189    
   1784000   295.89809     -444037.72     -440514.06      1347.1479      63.964133      60.241297    
   1785000   297.62209     -444058.38     -440514.19      1348.7299      51.548323      60.210902    
   1786000   298.73998     -444072.28     -440514.79      1353.9495      55.197118      60.193433    
   1787000   304.34401     -444138.53     -440514.3       1361.3669      51.592015      60.163567    
   1788000   299.47038     -444080.38     -440514.18      1363.7281      54.221034      60.143004    
   1789000   297.17859     -444053.72     -440514.82      1371.059       64.5346        60.158148    
   1790000   301.45757     -444104.09     -440514.24      1379.2741      67.275612      60.182606    
   1791000   302.82478     -444120.75     -440514.61      1386.2408      64.898443      60.198757    
   1792000   297.07164     -444052.25     -440514.62      1389.8902      62.164712      60.205466    
   1793000   298.33427     -444067.62     -440514.96      1391.8268      55.791657      60.190453    
   1794000   302.02236     -444110.28     -440513.7       1397.6081      66.152038      60.210662    
   1795000   297.56024     -444057.81     -440514.37      1401.8937      70.744767      60.24625     
   1796000   298.87246     -444074.06     -440514.99      1406.9324      67.765227      60.271567    
   1797000   300.44648     -444092.59     -440514.78      1412.753       48.447395      60.231888    
   1798000   297.87823     -444061.41     -440514.17      1414.7169      48.182627      60.19159     
   1799000   300.27766     -444090.38     -440514.57      1416.7595      51.951671      60.164123    
   1800000   297.55661     -444057.53     -440514.13      1424.3782      59.235671      60.161039    
   1801000   295.80644     -444036.59     -440514.03      1426.3225      65.961097      60.180244    
   1802000   299.30452     -444079.03     -440514.81      1433.0383      68.502972      60.207712    
   1803000   303.57865     -444131.22     -440516.1       1440.1993      65.162943      60.224012    
   1804000   298.77575     -444072.62     -440514.7       1448.7339      52.53897       60.198815    
   1805000   301.62534     -444105.5      -440513.64      1455.9132      70.43987       60.232283    
   1806000   299.3143      -444078.5      -440514.16      1457.8819      73.556228      60.275683    
   1807000   300.55791     -444093.19     -440514.04      1459.7994      48.242693      60.236615    
   1808000   300.1494      -444088.72     -440514.44      1466.363       62.811191      60.244947    
   1809000   302.05332     -444110.97     -440514.02      1468.9599      60.772876      60.24665     
   1810000   300.84383     -444096.62     -440514.08      1473.3759      59.04863       60.242798    
   1811000   300.75085     -444096.06     -440514.62      1480.4253      57.762094      60.234847    
   1812000   299.13552     -444076.81     -440514.61      1482.917       59.210536      60.231574    
   1813000   300.75856     -444096.22     -440514.68      1486.5019      52.894301      60.208207    
   1814000   299.80435     -444083.47     -440513.3       1492.0534      52.894122      60.184988    
   1815000   298.26921     -444066.91     -440515.02      1499.43        37.604556      60.113531    
   1816000   301.69777     -444107.44     -440514.72      1504.3854      32.474493      60.026342    
   1817000   298.77471     -444071.69     -440513.78      1506.0361      40.420044      59.964687    
   1818000   297.90539     -444061.88     -440514.32      1510.3518      43.547923      59.913223    
   1819000   295.81087     -444036.88     -440514.26      1515.5386      49.974912      59.882166    
   1820000   302.30128     -444113.84     -440513.94      1520.296       57.059266      59.873372    
   1821000   300.49472     -444092.59     -440514.2       1526.5421      46.817564      59.832826    
   1822000   298.39572     -444068        -440514.6       1530.3405      47.449815      59.794489    
   1823000   297.97732     -444061.94     -440513.52      1535.4661      49.066779      59.761378    
   1824000   302.52523     -444117.09     -440514.52      1545.3553      56.373024      59.750953    
   1825000   302.33801     -444115.09     -440514.75      1549.564       60.837458      59.754285    
   1826000   298.49092     -444068.41     -440513.88      1556.7142      60.938954      59.757908    
   1827000   300.81289     -444096.19     -440514.01      1557.9208      68.31278       59.78399     
   1828000   301.34836     -444101.84     -440513.29      1562.2508      71.490563      59.819572    
   1829000   303.38626     -444127.44     -440514.61      1567.9887      80.696644      59.882836    
   1830000   299.82996     -444085.28     -440514.81      1571.831       86.718654      59.963911    
   1831000   303.69356     -444131.5      -440515.02      1573.4557      64.210514      59.976702    
   1832000   300.66337     -444095.28     -440514.88      1576.8085      57.445088      59.9691      
   1833000   299.26098     -444077.56     -440513.86      1580.7076      60.425738      59.970467    
   1834000   302.94451     -444122.25     -440514.68      1585.4127      60.628125      59.97243     
   1835000   300.53317     -444093.06     -440514.21      1586.8669      48.304653      59.937705    
   1836000   302.75318     -444121.38     -440516.09      1591.1117      63.166712      59.947286    
   1837000   298.71806     -444072.12     -440514.89      1599.2434      57.302006      59.93946     
   1838000   299.28592     -444079.03     -440515.03      1604.7413      67.691684      59.962328    
   1839000   299.33371     -444078.59     -440514.03      1605.9715      73.929333      60.003407    
   1840000   299.89247     -444085.34     -440514.12      1610.5702      75.129156      60.047764    
   1841000   301.97        -444110.81     -440514.85      1615.4638      58.646026      60.043666    
   1842000   295.71088     -444035.19     -440513.76      1623.1679      73.269688      60.082226    
   1843000   301.33312     -444103.06     -440514.69      1629.4753      79.132211      60.137603    
   1844000   301.53419     -444105.75     -440514.98      1637.5796      81.003552      60.198084    
   1845000   299.5668      -444082.38     -440515.03      1639.5586      72.533705      60.233737    
   1846000   299.24811     -444078.5      -440514.95      1643.0311      67.682534      60.255203    
   1847000   306.86865     -444170.16     -440515.86      1648.1426      57.309936      60.246739    
   1848000   296.75265     -444049.38     -440515.54      1653.0914      54.892537      60.231398    
   1849000   308.02451     -444182.41     -440514.35      1659.8382      54.836651      60.215984    
   1850000   301.17868     -444101.41     -440514.87      1665.4194      68.092411      60.238424    
   1851000   300.59489     -444094.03     -440514.45      1672.2116      73.841799      60.27707     
   1852000   298.94063     -444074.06     -440514.18      1673.8453      89.207099      60.359025    
   1853000   294.54409     -444021.59     -440514.06      1681.2048      88.771203      60.439285    
   1854000   299.94295     -444085.94     -440514.12      1687.9913      88.046856      60.517053    
   1855000   300.76399     -444096.59     -440515         1694.5801      92.341518      60.606448    
   1856000   300.61752     -444094.22     -440514.36      1698.5118      58.747965      60.601242    
   1857000   297.8696      -444061.53     -440514.4       1703.1513      49.677506      60.570729    
   1858000   297.97325     -444062.34     -440513.98      1708.7445      53.87025       60.552064    
   1859000   303.57893     -444130.03     -440514.91      1715.809       65.818851      60.566694    
   1860000   299.94441     -444085.69     -440513.85      1721.4514      60.332271      60.566045    
   1861000   300.33231     -444090.34     -440513.89      1727.1159      69.621117      60.591059    
   1862000   294.69799     -444023.06     -440513.7       1728.6404      71.44542       60.620961    
   1863000   299.07351     -444075.56     -440514.09      1734.7525      74.774847      60.659845    
   1864000   295.77914     -444036.53     -440514.29      1736.5408      81.658655      60.717376    
   1865000   301.11132     -444099.91     -440514.17      1739.1849      77.387667      60.762923    
   1866000   299.62325     -444082.88     -440514.86      1743.4776      59.510276      60.75951     
   1867000   302.60357     -444117.88     -440514.37      1747.4546      72.963525      60.792673    
   1868000   296.85857     -444048.34     -440513.25      1749.5261      72.281515      60.823808    
   1869000   297.12798     -444051.5      -440513.2       1754.036       86.372108      60.892858    
   1870000   297.43073     -444056.12     -440514.22      1761.5444      64.581676      60.902801    
   1871000   299.45701     -444080.31     -440514.28      1765.3806      47.149619      60.86583     
   1872000   301.03098     -444099.22     -440514.44      1769.2846      63.966399      60.874142    
   1873000   293.67671     -444009.81     -440512.61      1773.7342      60.853029      60.874086    
   1874000   300.55933     -444093.59     -440514.43      1775.9366      62.58846       60.878657    
   1875000   297.36699     -444054.72     -440513.57      1782.7671      61.596109      60.880566    
   1876000   300.59242     -444093.97     -440514.41      1790.0635      57.713204      60.872164    
   1877000   300.37439     -444090.38     -440513.42      1795.5321      56.644832      60.860981    
   1878000   298.32519     -444066.28     -440513.72      1803.1267      53.78723       60.842316    
   1879000   299.5226      -444081.72     -440514.9       1804.7023      71.560463      60.870522    
   1880000   301.51206     -444104.5      -440513.99      1808.2689      59.924352      60.868039    
   1881000   294.01703     -444015.56     -440514.31      1810.6769      50.512786      60.840931    
   1882000   304.44047     -444140.31     -440514.93      1818.4646      69.537739      60.863638    
   1883000   296.88744     -444049.59     -440514.16      1819.6697      63.714337      60.871061    
   1884000   298.90199     -444073.88     -440514.45      1828.2366      71.005947      60.897386    
   1885000   298.18449     -444065.59     -440514.71      1829.8659      59.81618       60.894585    
   1886000   299.82328     -444084.81     -440514.42      1836.1652      72.808407      60.92537     
   1887000   299.38817     -444079.62     -440514.41      1842.9824      74.755547      60.961015    
   1888000   298.58689     -444069.25     -440513.58      1848.6168      59.812432      60.958062    
   1889000   296.34031     -444043.94     -440515.02      1853.4656      73.085926      60.989159    
   1890000   299.0591      -444075.62     -440514.33      1862.6183      73.807919      61.021944    
   1891000   302.64681     -444118.12     -440514.11      1864.5562      73.108247      61.052776    
   1892000   294.253       -444018.53     -440514.47      1868.9816      60.839091      61.052232    
   1893000   300.88303     -444097.25     -440514.23      1873.3103      68.559274      61.071286    
   1894000   296.97709     -444050.94     -440514.43      1877.5129      81.641276      61.123362    
   1895000   302.72684     -444119.62     -440514.65      1879.9966      77.049676      61.16358     
   1896000   302.5274      -444117.84     -440515.25      1884.6404      78.121262      61.206294    
   1897000   300.1631      -444088.47     -440514.03      1894.8843      78.206602      61.249008    
   1898000   302.72501     -444118.69     -440513.74      1896.196       80.4059        61.297021    
   1899000   301.74571     -444107.62     -440514.34      1902.6645      68.611129      61.315306    
   1900000   302.92148     -444121.56     -440514.27      1907.5076      87.283275      61.380064    
   1901000   301.6953      -444106.59     -440513.9       1914.923       72.516691      61.407767    
   1902000   301.49898     -444105.53     -440515.18      1918.8637      72.974048      61.436468    
   1903000   303.48162     -444128.25     -440514.29      1923.6425      45.365031      61.396687    
   1904000   296.15547     -444041.31     -440514.59      1930.0539      59.429552      61.39183     
   1905000   302.90193     -444121.59     -440514.54      1936.6382      77.103096      61.430527    
   1906000   296.74241     -444047.75     -440514.04      1940.2764      69.248948      61.449737    
   1907000   301.4169      -444103.47     -440514.09      1944.7263      86.82265       61.511926    
   1908000   296.02087     -444039.84     -440514.73      1948.8867      82.556857      61.56338     
   1909000   301.2112      -444101.81     -440514.89      1955.6664      77.07386       61.601211    
   1910000   299.35206     -444079.12     -440514.34      1962.9789      65.017346      61.609523    
   1911000   298.3215      -444066.81     -440514.3       1968.7036      68.383149      61.625963    
   1912000   298.7397      -444071.25     -440513.76      1977.5067      59.157521      61.619987    
   1913000   300.68272     -444094.28     -440513.65      1979.7952      53.88793       61.60131     
   1914000   301.82708     -444108.88     -440514.62      1986.8431      41.242252      61.552252    
   1915000   302.36228     -444115.44     -440514.81      1991.5848      57.78964       61.543207    
   1916000   299.71531     -444083.56     -440514.45      1998.4052      65.571641      61.552868    
   1917000   299.3441      -444078.41     -440513.72      2001.7634      77.907925      61.591995    
   1918000   305.7213      -444155.41     -440514.77      2003.8357      58.755369      61.585225    
   1919000   296.32966     -444042.91     -440514.11      2005.0667      62.699917      61.587879    
   1920000   293.69208     -444011.5      -440514.12      2008.7978      62.071196      61.589027    
   1921000   303.32107     -444126.5      -440514.45      2015.2379      41.315712      61.540986    
   1922000   299.91325     -444085.81     -440514.34      2020.3211      70.556714      61.5623      
   1923000   299.81891     -444086.25     -440515.91      2024.6766      65.785857      61.572261    
   1924000   302.67455     -444117.22     -440512.87      2030.6933      62.82977       61.57522     
   1925000   298.1737      -444064.44     -440513.68      2038.8932      80.528645      61.619711    
   1926000   299.12102     -444076.31     -440514.28      2041.1118      52.785228      61.599022    
   1927000   300.7006      -444095.69     -440514.84      2047.7284      42.449704      61.55428     
   1928000   301.06515     -444098.88     -440513.69      2049.5296      70.904575      61.576076    
   1929000   306.37685     -444163.5      -440515.06      2056.6029      55.465664      61.561865    
   1930000   297.8289      -444059.88     -440513.23      2065.3415      58.832818      61.555534    
   1931000   302.65281     -444119.28     -440515.19      2069.57        64.736156      61.562896    
   1932000   300.40132     -444091.22     -440513.94      2076.6725      59.391055      61.55788     
   1933000   301.79934     -444108.66     -440514.73      2083.3827      67.434864      61.571422    
   1934000   303.78668     -444132.38     -440514.78      2089.6865      65.669406      61.580842    
   1935000   298.07184     -444063.19     -440513.65      2094.3324      69.318266      61.598589    
   1936000   303.79308     -444131.78     -440514.11      2101.0362      71.480738      61.621202    
   1937000   300.2321      -444089.47     -440514.2       2105.0911      76.747398      61.655737    
   1938000   303.32987     -444127.28     -440515.13      2110.0493      54.304389      61.638991    
   1939000   300.61383     -444094.03     -440514.22      2114.5422      76.354945      61.672437    
   1940000   298.99223     -444074.78     -440514.28      2115.9353      71.692247      61.695157    
   1941000   302.10051     -444111.88     -440514.36      2124.1041      72.21671       61.718962    
   1942000   297.59393     -444057.88     -440514.03      2128.0016      74.146428      61.747015    
   1943000   297.91795     -444061.84     -440514.14      2132.9896      72.905886      61.772147    
   1944000   299.0597      -444075.38     -440514.07      2139.3976      82.21283       61.818082    
   1945000   301.80726     -444108.19     -440514.17      2143.7845      90.920176      61.883333    
   1946000   299.69248     -444083.16     -440514.32      2146.484       93.605749      61.9543      
   1947000   302.2125      -444112.88     -440514.03      2153.1233      98.222703      62.035257    
   1948000   299.83079     -444084.12     -440513.64      2161.1385      89.122629      62.095585    
   1949000   301.54242     -444105.06     -440514.19      2169.7999      75.381546      62.125109    
   1950000   298.07789     -444062.75     -440513.14      2173.2056      79.674668      62.164022    
   1951000   300.89502     -444097.38     -440514.22      2179.2552      89.248918      62.223944    
   1952000   298.08349     -444063.81     -440514.13      2180.7878      89.171173      62.28343     
   1953000   299.05595     -444076.06     -440514.8       2185.3256      83.19944       62.329501    
   1954000   296.17729     -444040.69     -440513.71      2193.9017      92.851551      62.396582    
   1955000   300.53518     -444092.97     -440514.09      2198.7627      93.053027      62.463811    
   1956000   299.4401      -444079.31     -440513.48      2202.9112      99.294238      62.544403    
   1957000   301.48869     -444104.66     -440514.43      2205.1111      82.089456      62.587078    
   1958000   301.04391     -444098.94     -440514.01      2212.5686      84.896288      62.635682    
   1959000   296.04006     -444039.38     -440514.03      2219.4776      100.8281       62.718709    
   1960000   298.51601     -444067.69     -440512.86      2224.2927      87.095831      62.771587    
   1961000   302.46424     -444115.31     -440513.47      2230.2769      85.984035      62.821831    
   1962000   298.54352     -444068.91     -440513.75      2238.9082      99.96037       62.902044    
   1963000   300.37486     -444091.31     -440514.35      2244.538       76.036725      62.930351    
   1964000   304.05605     -444135.56     -440514.76      2248.7721      76.588736      62.959724    
   1965000   297.44307     -444055.97     -440513.92      2252.9298      69.070391      62.972837    
   1966000   302.07689     -444111.53     -440514.3       2257.6801      69.816844      62.987492    
   1967000   302.06711     -444111.91     -440514.79      2259.8123      83.52319       63.031372    
   1968000   294.84189     -444025.03     -440513.95      2261.7208      62.007562      63.029189    
   1969000   303.89915     -444133.56     -440514.63      2267.8127      69.393755      63.042731    
   1970000   299.77572     -444084.28     -440514.45      2272.7489      89.644973      63.099211    
   1971000   305.00187     -444146.75     -440514.69      2276.8151      78.69241       63.132247    
   1972000   300.63951     -444094.12     -440514.01      2281.4559      78.363549      63.164449    
   1973000   299.99585     -444087.06     -440514.61      2285.4322      67.196777      63.172956    
   1974000   303.07784     -444123.44     -440514.28      2289.3699      61.904248      63.170285    
   1975000   301.26706     -444101.31     -440513.72      2294.2195      71.195929      63.187146    
   1976000   300.16421     -444088.44     -440513.98      2303.1719      66.011149      63.193066    
   1977000   299.93612     -444085.47     -440513.73      2305.5405      68.305218      63.203761    
   1978000   296.80034     -444048.09     -440513.7       2311.831       74.773974      63.227916    
   1979000   302.59874     -444117.41     -440513.96      2313.536       68.812724      63.239551    
   1980000   301.5244      -444104.38     -440513.72      2315.2616      57.54894       63.22772     
   1981000   300.86407     -444096.56     -440513.77      2319.4477      57.495645      63.215828    
   1982000   298.29802     -444066.25     -440514.02      2321.2909      60.073726      63.209322    
   1983000   299.65282     -444082        -440513.63      2326.653       60.905067      63.204561    
   1984000   300.43278     -444091.5      -440513.85      2328.626       56.603484      63.190951    
   1985000   297.45322     -444055.75     -440513.58      2334.9964      53.489204      63.170989    
   1986000   300.69424     -444094.22     -440513.45      2339.8546      79.16686       63.203834    
   1987000   301.61009     -444105.5      -440513.83      2341.7571      71.152311      63.220122    
   1988000   299.00892     -444074.47     -440513.77      2347.3783      70.390001      63.234784    
   1989000   299.7379      -444083.19     -440513.81      2351.4377      61.810248      63.231877    
   1990000   302.1015      -444111.38     -440513.85      2355.5216      76.838046      63.259588    
   1991000   298.03847     -444063.03     -440513.89      2364.5282      56.668478      63.246192    
   1992000   299.16249     -444076.38     -440513.85      2366.3753      49.970202      63.219263    
   1993000   301.53889     -444104.19     -440513.36      2370.4058      56.592973      63.205849    
   1994000   300.65625     -444094.5      -440514.18      2374.237       67.153042      63.213823    
   1995000   295.9402      -444037.81     -440513.66      2379.174       60.751217      63.208858    
   1996000   298.45649     -444066.97     -440512.85      2383.7941      73.717875      63.230003    
   1997000   300.14624     -444088.31     -440514.07      2385.6557      71.354377      63.246317    
   1998000   298.63028     -444071.59     -440515.4       2390.4176      78.019428      63.275923    
   1999000   297.83338     -444060.94     -440514.24      2394.404       72.022121      63.293415    
   2000000   298.17739     -444064.41     -440513.61      2398.9702      72.730039      63.312251    
Loop time of 12911.8 on 1 procs for 500000 steps with 3996 atoms

Performance: 1.673 ns/day, 14.346 hours/ns, 38.724 timesteps/s, 154.742 katom-step/s
99.9% CPU use with 1 MPI tasks x 1 OpenMP threads

MPI task timing breakdown:
Section |  min time  |  avg time  |  max time  |%varavg| %total
---------------------------------------------------------------
Pair    | 12300      | 12300      | 12300      |   0.0 | 95.26
Bond    | 0.15428    | 0.15428    | 0.15428    |   0.0 |  0.00
Neigh   | 17.893     | 17.893     | 17.893     |   0.0 |  0.14
Comm    | 10.855     | 10.855     | 10.855     |   0.0 |  0.08
Output  | 0.15097    | 0.15097    | 0.15097    |   0.0 |  0.00
Modify  | 555.94     | 555.94     | 555.94     |   0.0 |  4.31
Other   |            | 27.17      |            |       |  0.21

Nlocal:           3996 ave        3996 max        3996 min
Histogram: 1 0 0 0 0 0 0 0 0 0
Nghost:          16391 ave       16391 max       16391 min
Histogram: 1 0 0 0 0 0 0 0 0 0
Neighs:              0 ave           0 max           0 min
Histogram: 1 0 0 0 0 0 0 0 0 0
FullNghs:  3.16439e+06 ave 3.16439e+06 max 3.16439e+06 min
Histogram: 1 0 0 0 0 0 0 0 0 0

Total # of neighbors = 3164392
Ave neighs/atom = 791.88989
Ave special neighs/atom = 0
Neighbor list builds = 5647
Dangerous builds = 0
write_restart   kappa_restart_4
System init for write_restart ...
Total wall time: 3:35:12
