LAMMPS (22 Jul 2025)
KOKKOS mode with Kokkos version 4.6.2 is enabled
  will use up to 1 GPU(s) per node
  using 1 OpenMP thread(s) per MPI task
package kokkos
read_restart    kappa_restart_2
Reading restart file ...
  restart file = 22 Jul 2025, LAMMPS = 22 Jul 2025
  restoring atom style full/kk from restart
  orthogonal box = (0.71446759 0.71446759 0.71446759) to (36.662232 36.662232 36.662232)
  1 by 1 by 1 MPI processor grid
  pair style bamboo stores no restart info
  3996 atoms
Finding 1-2 1-3 1-4 neighbors ...
  special bond factors lj:    0        0        0       
  special bond factors coul:  0        0        0       
     0 = max # of 1-2 neighbors
     0 = max # of 1-3 neighbors
     0 = max # of 1-4 neighbors
     1 = max # of special neighbors
  special bonds CPU = 0.001 seconds
  read_restart CPU = 0.032 seconds

pair_style      bamboo 5.0 5.0 10.0 1
pair_coeff /mnt/bn/ai4s-hl/bamboo/bamboo_finetune/thermal-no-all-13-ft-03/k0r0/density_r2/k0r0-density_r2-0/checkpoints/finetune.pt H C O

neighbor        3.0 bin
neigh_modify	delay 0 check yes

compute         ke all ke/atom
variable        kB equal 0.0019872041       # Boltzmann const. (kcal/mol·K)
variable        temp atom c_ke/(1.5*${kB})  # per-atom temperature (K)
variable        temp atom c_ke/(1.5*0.0019872041)  

fix             1 all nve

compute         layers all chunk/atom bin/1d z lower 0.05 units reduced
fix             2 all ave/chunk 10 100 1000 layers v_temp file profile3.mp
fix             3 all thermal/conductivity 500 z 20

variable        tdiff equal f_2[11][3]-f_2[1][3]
thermo_style    custom step temp epair etotal f_3 v_tdiff
thermo_modify   colname f_3 E_delta colname v_tdiff dTemp_step

fix             ave all ave/time 1 1 1000 v_tdiff ave running
thermo_style    custom step temp epair etotal f_3 v_tdiff f_ave
WARNING: New thermo_style command, previous thermo_modify settings will be lost (src/code.byted.org/data/lammps_bamboo/src/output.cpp:912)
thermo_modify   colname f_3 E_delta colname v_tdiff dTemp_step colname f_ave dTemp

thermo          1000
run             500000
Unused restart file peratom fix info:
  fix style: STORE/ATOM, fix ID: layers_COMPUTE_STORE
Neighbor list info ...
  update: every = 1 steps, delay = 0 steps, check = yes
  max neighbors/atom: 2000, page size: 100000
  master list distance cutoff = 13
  ghost atom cutoff = 13
  binsize = 13, bins = 3 3 3
  1 neighbor lists, perpetual/occasional/extra = 1 0 0
  (1) pair bamboo/kk, perpetual
      attributes: full, newton off, kokkos_device
      pair build: full/bin/kk/device
      stencil: full/bin/3d
      bin: kk/device
WARNING: Fix STORE/ATOM not compatible with sending data in Kokkos communication (src/code.byted.org/data/lammps_bamboo/src/KOKKOS/comm_kokkos.cpp:766)
WARNING: Fix with atom-based arrays not compatible with sending data in Kokkos communication, switching to classic exchange/border communication (src/code.byted.org/data/lammps_bamboo/src/KOKKOS/comm_kokkos.cpp:779)
WARNING: Fix STORE/ATOM not compatible with Kokkos sorting on device (src/code.byted.org/data/lammps_bamboo/src/KOKKOS/atom_kokkos.cpp:212)
WARNING: Fix with atom-based arrays not compatible with Kokkos sorting on device, switching to classic host sorting (src/code.byted.org/data/lammps_bamboo/src/KOKKOS/atom_kokkos.cpp:218)
Per MPI rank memory allocation (min/avg/max) = 8.637 | 8.637 | 8.637 Mbytes
   Step          Temp          E_pair         TotEng        E_delta       dTemp_step       dTemp     
   1000000   299.20175     -444080.34     -440517.35      0              0              0            
   1001000   299.25131     -444080        -440516.41      6.0641151      63.977029      31.988515    
   1002000   298.32635     -444069.06     -440516.49      10.169112      56.354447      40.110492    
   1003000   299.98294     -444089.62     -440517.33      16.943043      66.246311      46.644447    
   1004000   304.46422     -444143.53     -440517.87      22.96946       52.979364      47.91143     
   1005000   293.40257     -444010        -440516.06      27.456428      67.156726      51.11898     
   1006000   295.7704      -444038.16     -440516.02      32.321484      80.561567      55.325064    
   1007000   297.57878     -444061.16     -440517.49      34.133353      82.353333      58.703597    
   1008000   299.50509     -444083.72     -440517.11      38.142627      63.816167      59.271661    
   1009000   299.45933     -444082.94     -440516.88      46.334974      54.079017      58.752396    
   1010000   299.81231     -444086.44     -440516.17      53.402349      59.062107      58.780552    
   1011000   296.55447     -444048.16     -440516.69      60.352324      67.235143      59.485101    
   1012000   299.7017      -444085.88     -440516.93      67.395452      71.452868      60.405699    
   1013000   298.23686     -444068.38     -440516.87      70.071568      62.586118      60.561443    
   1014000   303.56963     -444131.91     -440516.9       75.593086      56.183908      60.269607    
   1015000   295.3036      -444032.97     -440516.39      77.06414       53.203353      59.827966    
   1016000   300.70999     -444097.94     -440516.98      81.266019      60.978296      59.895633    
   1017000   298.15322     -444066.66     -440516.15      85.511295      79.477439      60.983511    
   1018000   299.26144     -444080.34     -440516.64      93.246844      85.68074       62.283365    
   1019000   298.04646     -444065.78     -440516.54      97.896092      78.99355       63.118874    
   1020000   302.77484     -444122.69     -440517.14      102.11454      60.748105      63.005981    
   1021000   303.30254     -444128.25     -440516.42      105.95803      61.417718      62.933787    
   1022000   299.70077     -444085.66     -440516.72      113.79411      54.166878      62.552617    
   1023000   303.65372     -444134.16     -440518.15      118.05664      71.925578      62.943157    
   1024000   292.62276     -444000.38     -440515.72      122.43574      67.224907      63.114427    
   1025000   301.54123     -444107.94     -440517.08      130.15181      60.20567       63.002552    
   1026000   302.89965     -444123.91     -440516.88      134.75456      75.491696      63.465113    
   1027000   301.58029     -444107.38     -440516.06      138.90831      66.700218      63.580652    
   1028000   298.19974     -444068.38     -440517.31      140.51841      48.429558      63.0582      
   1029000   294.74012     -444026.88     -440517.01      142.39151      48.547248      62.574502    
   1030000   292.73544     -444002.81     -440516.82      144.60429      37.942425      61.779919    
   1031000   299.25629     -444080.41     -440516.76      149.3897       35.290252      60.952117    
   1032000   297.78224     -444062.16     -440516.07      155.21385      30.344014      60.024599    
   1033000   302.78427     -444123.5      -440517.84      162.35083      23.975181      58.964322    
   1034000   301.95052     -444113.84     -440518.12      171.05741      25.920554      58.020214    
   1035000   297.42395     -444059.03     -440517.21      179.36177      41.468928      57.560456    
   1036000   298.95806     -444077.12     -440517.03      181.40029      46.647061      57.265499    
   1037000   297.90374     -444065.28     -440517.74      188.96536      38.398146      56.76899     
   1038000   299.81914     -444087.69     -440517.34      193.81249      39.391733      56.323419    
   1039000   303.09828     -444127.06     -440517.67      200.83248      52.322551      56.223398    
   1040000   297.34131     -444057.91     -440517.07      202.54756      53.517026      56.157389    
   1041000   297.83248     -444063.91     -440517.22      211.51303      64.031101      56.344858    
   1042000   292.15083     -443995.53     -440516.5       216.72021      61.578065      56.46656     
   1043000   298.01208     -444065.94     -440517.11      219.00435      45.43412       56.215823    
   1044000   299.13366     -444079.12     -440516.94      224.21394      43.876298      55.941612    
   1045000   298.58376     -444072.25     -440516.61      231.76702      54.737886      55.915444    
   1046000   299.45643     -444083.5      -440517.47      236.64828      48.001627      55.747065    
   1047000   299.6788      -444086.03     -440517.36      238.97625      45.387211      55.531234    
   1048000   301.33982     -444105.34     -440516.89      244.11526      59.225815      55.606634    
   1049000   296.21764     -444043.81     -440516.35      251.38046      69.392229      55.882346    
   1050000   298.86534     -444076.31     -440517.32      257.17191      59.871721      55.960569    
   1051000   297.10395     -444054.59     -440516.58      263.13904      58.178782      56.003227    
   1052000   298.98258     -444077.62     -440517.24      270.77898      48.717055      55.865752    
   1053000   297.47492     -444059.31     -440516.88      275.31589      58.908626      55.922101    
   1054000   297.50741     -444059.09     -440516.28      279.18658      40.959483      55.650054    
   1055000   300.4073      -444095.28     -440517.93      283.5961       40.838637      55.385564    
   1056000   299.23325     -444080        -440516.63      288.15393      48.973941      55.273079    
   1057000   297.67563     -444061.44     -440516.62      289.80258      62.532231      55.398237    
   1058000   302.6299      -444120.59     -440516.78      295.48773      60.94783       55.492298    
   1059000   303.20706     -444128.44     -440517.75      297.73797      40.065842      55.235191    
   1060000   301.7601      -444110.84     -440517.38      299.49551      48.9144        55.131571    
   1061000   297.07434     -444054.53     -440516.87      304.32205      34.865607      54.804701    
   1062000   303.44365     -444130.47     -440516.96      313.31187      45.437071      54.656008    
   1063000   302.26039     -444116.31     -440516.89      321.82668      40.284518      54.431454    
   1064000   299.7808      -444086.06     -440516.17      323.5861       39.848197      54.207096    
   1065000   301.27793     -444105.03     -440517.31      325.70388      44.006367      54.052539    
   1066000   301.70436     -444110.06     -440517.27      333.208        44.550127      53.910712    
   1067000   295.62788     -444036.66     -440516.22      341.56531      38.695802      53.686964    
   1068000   300.52225     -444096.19     -440517.47      346.28133      37.669027      53.45482     
   1069000   297.51268     -444059.06     -440516.18      351.04462      34.829108      53.188738    
   1070000   298.44382     -444070.16     -440516.19      353.45531      36.390242      52.952139    
   1071000   297.86573     -444064.66     -440517.57      357.50904      49.821041      52.908652    
   1072000   297.84604     -444063.81     -440516.96      366.94248      51.808686      52.893584    
   1073000   303.68697     -444133.41     -440517         369.36603      43.949047      52.772712    
   1074000   300.80672     -444098.81     -440516.71      377.08666      38.834077      52.586863    
   1075000   300.07416     -444090.47     -440517.08      381.19393      53.807981      52.602931    
   1076000   299.00084     -444076.66     -440516.05      388.75954      52.139989      52.596918    
   1077000   303.04735     -444125.5      -440516.71      390.86388      56.323454      52.644695    
   1078000   299.27921     -444080.88     -440516.96      397.12135      50.91485       52.622798    
   1079000   303.50287     -444130.97     -440516.75      398.45074      50.718973      52.599       
   1080000   298.31182     -444069.69     -440517.29      403.78558      55.90805       52.639852    
   1081000   297.06952     -444053.81     -440516.21      405.90994      53.657509      52.652263    
   1082000   298.69163     -444074.41     -440517.49      407.55636      61.303836      52.756499    
   1083000   299.08187     -444078.34     -440516.78      413.28553      56.069189      52.795936    
   1084000   298.84424     -444075.41     -440516.67      417.76067      54.112599      52.811426    
   1085000   300.29015     -444092.03     -440516.08      424.93134      56.576948      52.855211    
   1086000   297.49121     -444059.38     -440516.75      426.60229      43.38072       52.746309    
   1087000   299.7491      -444086.47     -440516.96      434.25278      62.394816      52.855951    
   1088000   299.29182     -444081.16     -440517.09      436.37472      66.008742      53.003735    
   1089000   301.03594     -444101.84     -440517.01      447.58657      66.121355      53.149486    
   1090000   301.54316     -444107.84     -440516.97      451.66816      68.050784      53.313237    
   1091000   295.76444     -444038.38     -440516.31      454.15708      77.967979      53.581223    
   1092000   299.58815     -444083.94     -440516.34      456.13458      69.301946      53.750263    
   1093000   301.55479     -444109.16     -440518.14      462.22896      80.939296      54.039508    
   1094000   299.24248     -444080.72     -440517.24      467.9765       85.407348      54.369696    
   1095000   297.47039     -444058        -440515.62      473.72539      80.957413      54.646651    
   1096000   303.25155     -444127.66     -440516.43      475.79024      74.1091        54.847295    
   1097000   295.6647      -444036.81     -440515.94      479.8196       61.691266      54.917132    
   1098000   296.36744     -444045.25     -440516.01      485.77551      42.254297      54.789224    
   1099000   298.23503     -444068.03     -440516.55      487.88417      67.246898      54.913801    
   1100000   304.88428     -444147.62     -440516.96      497.42856      64.661974      55.010317    
   1101000   301.30293     -444105.03     -440517.01      501.59774      67.844471      55.136142    
   1102000   302.33227     -444116.94     -440516.66      503.71605      44.407069      55.031977    
   1103000   301.52739     -444107.81     -440517.12      509.45725      47.141156      54.956103    
   1104000   294.79797     -444026.81     -440516.26      517.40589      62.233337      55.02541     
   1105000   301.7092      -444108.84     -440515.99      522.21329      61.296229      55.084569    
   1106000   301.16204     -444103.75     -440517.41      529.24532      60.936906      55.139264    
   1107000   299.1863      -444079.47     -440516.66      534.34523      81.196468      55.380534    
   1108000   297.5228      -444060.41     -440517.4       539.26757      82.663421      55.630836    
   1109000   299.19657     -444079.28     -440516.35      544.2398       72.973407      55.788496    
   1110000   297.83061     -444063.25     -440516.58      550.87199      74.33506       55.955582    
   1111000   297.78247     -444062.53     -440516.44      552.49631      82.829562      56.195528    
   1112000   297.28236     -444056.44     -440516.3       559.39493      59.469187      56.224499    
   1113000   303.30113     -444129.16     -440517.34      563.08471      64.160254      56.29411     
   1114000   300.39643     -444093.84     -440516.62      566.53013      62.93487       56.351856    
   1115000   302.18658     -444115.09     -440516.55      571.32857      71.591856      56.483235    
   1116000   298.36694     -444069.78     -440516.73      573.47036      55.634838      56.475984    
   1117000   301.2236      -444103.78     -440516.71      577.38657      53.708091      56.452527    
   1118000   295.46411     -444035        -440516.51      581.4488       72.757353      56.589543    
   1119000   301.41493     -444105.69     -440516.34      586.4538       71.73836       56.715783    
   1120000   298.54746     -444071.38     -440516.17      591.92374      66.596767      56.797444    
   1121000   301.64948     -444108.19     -440516.04      595.84358      74.669763      56.943938    
   1122000   303.00023     -444124.66     -440516.43      600.7901       71.210924      57.05993     
   1123000   297.0385      -444052.94     -440515.7       607.63977      70.506116      57.168367    
   1124000   303.89041     -444135.16     -440516.33      611.507        74.697246      57.308598    
   1125000   298.1196      -444067.16     -440517.05      616.05848      51.785189      57.264762    
   1126000   303.6954      -444133.16     -440516.65      624.25565      47.908813      57.191093    
   1127000   306.6667      -444167.94     -440516.05      630.72364      52.476045      57.154256    
   1128000   298.30486     -444068.12     -440515.81      635.65942      45.529999      57.064146    
   1129000   300.32273     -444092.69     -440516.34      641.97029      54.778067      57.046561    
   1130000   298.94012     -444076.34     -440516.46      646.59568      57.366165      57.049       
   1131000   298.49871     -444071.12     -440516.5       648.15622      49.591526      56.992504    
   1132000   307.29758     -444176.81     -440517.41      652.08714      43.318118      56.889689    
   1133000   299.96157     -444087.81     -440515.77      658.71612      58.463661      56.901435    
   1134000   301.81818     -444110.19     -440516.04      660.07861      69.716963      56.996365    
   1135000   301.28812     -444104.69     -440516.85      664.17589      74.823878      57.12745     
   1136000   300.37657     -444093.09     -440516.11      669.15975      66.806607      57.198101    
   1137000   302.84049     -444123.06     -440516.74      674.14345      66.856621      57.26809     
   1138000   302.88819     -444123.59     -440516.7       680.6451       80.200574      57.433072    
   1139000   302.47393     -444118.53     -440516.57      682.35684      72.454192      57.540366    
   1140000   296.98331     -444052.28     -440515.7       688.55952      61.615872      57.56927     
   1141000   303.34201     -444129.09     -440516.8       690.63258      63.127626      57.608413    
   1142000   296.79505     -444050.31     -440515.98      695.36351      70.286364      57.69707     
   1143000   296.04221     -444040.47     -440515.1       702.42574      58.238828      57.700832    
   1144000   296.54209     -444047.59     -440516.27      706.44659      56.452047      57.69222     
   1145000   299.43595     -444082.09     -440516.31      710.86575      78.164068      57.832438    
   1146000   301.16786     -444103.06     -440516.65      712.93664      74.856123      57.948246    
   1147000   298.78323     -444073.81     -440515.8       718.2399       77.952996      58.083413    
   1148000   302.75467     -444121.84     -440516.54      723.28043      69.461937      58.159779    
   1149000   299.64313     -444085.19     -440516.94      727.32574      79.530779      58.302252    
   1150000   297.16901     -444055.75     -440516.96      731.55804      75.838466      58.418386    
   1151000   298.81018     -444074.09     -440515.76      736.06125      71.20419       58.502503    
   1152000   295.69288     -444036.94     -440515.73      738.14461      71.147112      58.585148    
   1153000   300.40038     -444094.5      -440517.23      742.57046      76.058481      58.698611    
   1154000   297.45116     -444059.06     -440516.91      749.88895      67.160114      58.753201    
   1155000   298.4284      -444071.34     -440517.56      751.70125      71.233917      58.833206    
   1156000   303.01716     -444124.41     -440515.98      755.54885      69.993602      58.904291    
   1157000   300.17388     -444092.16     -440517.58      757.83742      82.319074      59.052486    
   1158000   299.9643      -444088.16     -440516.08      764.8824       82.569435      59.200391    
   1159000   300.60608     -444096.84     -440517.13      768.92381      84.099155      59.356009    
   1160000   296.67507     -444048.97     -440516.06      777.23548      81.974311      59.496495    
   1161000   296.73027     -444049.94     -440516.37      782.24634      68.551067      59.552387    
   1162000   296.40097     -444045.66     -440516.01      786.66751      64.192436      59.580854    
   1163000   300.18154     -444090.97     -440516.31      794.10562      82.079136      59.718039    
   1164000   298.17959     -444066.91     -440516.08      800.0663       76.192686      59.817885    
   1165000   298.36506     -444069.34     -440516.31      802.39798      54.713701      59.787137    
   1166000   300.40985     -444094.16     -440516.77      808.54812      60.359195      59.790562    
   1167000   303.17019     -444127.19     -440516.93      810.76159      56.242593      59.769443    
   1168000   303.59836     -444131.84     -440516.49      818.36876      69.4004        59.826431    
   1169000   299.83491     -444086.88     -440516.34      822.39252      85.311905      59.976346    
   1170000   297.6981      -444061.38     -440516.29      828.74799      76.388836      60.072325    
   1171000   305.46886     -444154.16     -440516.53      834.55952      48.779438      60.006669    
   1172000   300.20642     -444091.56     -440516.6       836.47511      60.238618      60.00801     
   1173000   302.18398     -444115.03     -440516.52      845.74916      51.681122      59.960154    
   1174000   297.99439     -444064.78     -440516.16      853.81829      71.008169      60.023286    
   1175000   296.86205     -444052        -440516.87      858.45531      71.40472       60.087953    
   1176000   301.37774     -444105.56     -440516.66      862.44191      62.83641       60.103481    
   1177000   295.95305     -444040.81     -440516.5       867.09189      62.720898      60.118185    
   1178000   300.19834     -444091.66     -440516.79      874.80466      87.21545       60.269567    
   1179000   299.65065     -444085.03     -440516.69      876.39984      70.055694      60.323934    
   1180000   297.76551     -444062.31     -440516.42      883.26734      66.653794      60.358906    
   1181000   299.02471     -444077.66     -440516.77      887.34451      55.837618      60.334064    
   1182000   294.83168     -444027.47     -440516.51      889.2972       49.632155      60.275583    
   1183000   298.53122     -444071.69     -440516.68      893.79118      44.993933      60.192531    
   1184000   301.6828      -444109.69     -440517.15      898.6314       61.089722      60.19738     
   1185000   295.91229     -444039.88     -440516.05      900.06276      70.804967      60.25441     
   1186000   302.15127     -444114.53     -440516.41      908.96044      74.039609      60.328128    
   1187000   296.26665     -444044.34     -440516.3       916.36021      75.277712      60.407647    
   1188000   296.17464     -444043.16     -440516.21      920.22168      74.289648      60.481097    
   1189000   301.98052     -444112.34     -440516.26      924.484        72.966767      60.546811    
   1190000   298.08441     -444065.72     -440516.03      931.20701      81.750091      60.657823    
   1191000   299.42574     -444081.97     -440516.31      932.87145      64.496157      60.677814    
   1192000   298.05459     -444067        -440517.67      940.90573      55.485553      60.650911    
   1193000   300.21806     -444091.91     -440516.81      945.90098      68.516048      60.691453    
   1194000   300.00869     -444090.06     -440517.46      949.87288      70.24986       60.740471    
   1195000   298.82355     -444074.84     -440516.35      955.319        73.274044      60.804418    
   1196000   297.50647     -444058.38     -440515.57      959.18051      52.738051      60.763472    
   1197000   299.34206     -444080.72     -440516.05      965.36042      50.914293      60.713728    
   1198000   301.52684     -444106.94     -440516.25      969.15282      61.007148      60.715203    
   1199000   295.63562     -444036.31     -440515.78      975.58697      51.728274      60.670268    
   1200000   300.40915     -444094.72     -440517.35      981.78024      54.290647      60.638529    
   1201000   304.04223     -444138.88     -440518.24      983.61157      64.68403       60.658556    
   1202000   301.00822     -444101.12     -440516.62      988.19473      44.187526      60.577418    
   1203000   299.56116     -444083.59     -440516.32      996.39434      43.5655        60.494026    
   1204000   302.69679     -444121.72     -440517.1       998.44672      54.631304      60.465427    
   1205000   297.1924      -444056.31     -440517.25      1004.047       69.141891      60.507546    
   1206000   296.39073     -444045.62     -440516.1       1011.2134      65.386581      60.531116    
   1207000   301.23519     -444103.53     -440516.32      1016.3726      75.076649      60.601047    
   1208000   293.12318     -444006.12     -440515.52      1022.5788      72.103444      60.656082    
   1209000   303.48888     -444130.75     -440516.7       1028.5021      64.574685      60.674742    
   1210000   298.77642     -444074.09     -440516.16      1032.6046      55.9044        60.652134    
   1211000   303.89927     -444134.97     -440516.03      1042.6943      55.91952       60.62981     
   1212000   299.26853     -444079.72     -440515.93      1044.5202      66.355739      60.656693    
   1213000   300.47751     -444095.91     -440517.72      1046.9273      68.233063      60.692096    
   1214000   301.75371     -444109.62     -440516.24      1052.4197      60.376081      60.690626    
   1215000   303.72035     -444133.38     -440516.57      1057.1598      74.038326      60.752421    
   1216000   299.87835     -444087.34     -440516.29      1063.0808      45.096874      60.680276    
   1217000   301.41037     -444105.03     -440515.74      1068.7996      64.815182      60.699243    
   1218000   297.7366      -444061.44     -440515.89      1072.5227      63.399883      60.711575    
   1219000   301.96517     -444112.12     -440516.22      1076.8265      60.853688      60.712221    
   1220000   297.69902     -444062        -440516.9       1083.2826      55.781694      60.689911    
   1221000   299.34082     -444080.91     -440516.26      1087.3746      65.365507      60.710972    
   1222000   296.04397     -444041.62     -440516.23      1091.1319      62.106339      60.717229    
   1223000   297.73693     -444061.22     -440515.67      1099.3314      49.011308      60.664971    
   1224000   297.9444      -444064.38     -440516.35      1103.2743      58.004217      60.653145    
   1225000   298.69384     -444073.44     -440516.49      1107.3308      74.443079      60.714163    
   1226000   300.25886     -444091.34     -440515.76      1112.433       88.349282      60.835903    
   1227000   298.58048     -444072.16     -440516.56      1117.0556      83.367189      60.934725    
   1228000   297.44704     -444057.88     -440515.78      1122.4         60.929063      60.9347      
   1229000   300.6196      -444095.56     -440515.68      1129.6727      65.500717      60.954552    
   1230000   302.8132      -444122.69     -440516.69      1131.369       58.700238      60.944793    
   1231000   295.64224     -444035.94     -440515.33      1135.5182      66.965505      60.970745    
   1232000   297.37432     -444057.28     -440516.05      1143.5902      47.774117      60.914107    
   1233000   304.76769     -444145.28     -440516.01      1145.2105      68.451567      60.946318    
   1234000   300.77728     -444098.5      -440516.74      1150.6673      61.610973      60.949146    
   1235000   300.07336     -444089.69     -440516.31      1152.3449      73.858939      61.003849    
   1236000   298.76509     -444074.59     -440516.8       1159.2323      61.55209       61.006162    
   1237000   298.24699     -444067.44     -440515.81      1165.0088      82.713519      61.09737     
   1238000   296.76826     -444050.09     -440516.08      1171.5515      77.522917      61.166096    
   1239000   299.18307     -444078.34     -440515.57      1176.2248      71.462373      61.208997    
   1240000   303.59427     -444131.91     -440516.6       1178.8488      74.257153      61.263139    
   1241000   303.3162      -444128.34     -440516.35      1183.2154      72.255184      61.30856     
   1242000   299.12157     -444078.38     -440516.33      1191.5826      61.295008      61.308505    
   1243000   303.32568     -444128.31     -440516.21      1197.8295      60.267499      61.304238    
   1244000   300.78852     -444097.84     -440515.95      1204.1151      55.759556      61.281607    
   1245000   299.99305     -444088.47     -440516.05      1208.5891      64.476957      61.294596    
   1246000   299.77578     -444085.72     -440515.89      1215.3186      60.934313      61.293137    
   1247000   300.48178     -444094.09     -440515.86      1219.2631      68.734629      61.323143    
   1248000   294.02504     -444017.31     -440515.96      1223.3192      79.418037      61.395814    
   1249000   297.32913     -444057.62     -440516.93      1229.2561      73.086516      61.442576    
   1250000   293.23054     -444007.31     -440515.42      1233.0685      85.661804      61.539067    
   1251000   299.07933     -444078.16     -440516.62      1240.2396      88.494567      61.646034    
   1252000   301.88751     -444111.62     -440516.65      1242.7693      78.964088      61.714484    
   1253000   296.34822     -444045.66     -440516.64      1244.4366      73.013338      61.758968    
   1254000   298.64293     -444072.41     -440516.07      1245.7014      64.247379      61.768727    
   1255000   299.57483     -444084.41     -440516.97      1247.5638      54.583642      61.74066     
   1256000   301.33888     -444104.81     -440516.37      1248.8268      60.372744      61.735337    
   1257000   301.74289     -444110.06     -440516.81      1252.5425      78.358408      61.799768    
   1258000   299.92857     -444088.16     -440516.51      1254.6899      63.178084      61.805089    
   1259000   304.03731     -444136.59     -440516.02      1260.521       67.25208       61.826039    
   1260000   295.82274     -444039.31     -440516.56      1265.8705      45.025715      61.76167     
   1261000   297.20804     -444055.28     -440516.03      1274.1245      56.065599      61.73993     
   1262000   302.60861     -444119.97     -440516.4       1280.1171      56.546068      61.720181    
   1263000   301.49509     -444106.91     -440516.6       1281.8492      40.241511      61.638822    
   1264000   303.7057      -444133.44     -440516.81      1286.9965      57.984754      61.625034    
   1265000   296.73266     -444049.12     -440515.53      1294.3605      73.748894      61.670612    
   1266000   296.97281     -444052.72     -440516.27      1301.1751      68.823461      61.697402    
   1267000   302.46435     -444118.03     -440516.18      1305.9942      63.276532      61.703294    
   1268000   302.05593     -444114.47     -440517.49      1313.8418      68.494379      61.72854     
   1269000   293.96237     -444016.28     -440515.68      1318.4419      57.525005      61.712971    
   1270000   296.09146     -444041.94     -440515.98      1323.3968      60.07713       61.706935    
   1271000   293.531       -444012.12     -440516.66      1329.176       61.81274       61.707324    
   1272000   303.1865      -444126.25     -440515.8       1333.9619      48.635535      61.659442    
   1273000   303.04373     -444125.25     -440516.5       1336.6328      56.434339      61.640372    
   1274000   298.61403     -444072.31     -440516.32      1340.7754      54.858371      61.61571     
   1275000   299.98094     -444088.53     -440516.26      1342.934       55.642904      61.594069    
   1276000   299.61278     -444084.56     -440516.67      1346.7334      77.703718      61.652227    
   1277000   301.10927     -444102.25     -440516.54      1350.4893      51.948088      61.61732     
   1278000   298.72491     -444073.41     -440516.09      1358.4309      56.174236      61.597811    
   1279000   297.27073     -444056.22     -440516.22      1363.6412      56.176725      61.57845     
   1280000   297.08415     -444054.44     -440516.66      1368.59        71.369919      61.613295    
   1281000   306.04006     -444161.09     -440516.67      1373.7406      54.157304      61.586855    
   1282000   298.22667     -444067.44     -440516.05      1375.4715      61.731222      61.587365    
   1283000   302.10979     -444114.34     -440516.72      1380.1263      57.538811      61.57311     
   1284000   297.6003      -444059.88     -440515.95      1382.4409      56.749119      61.556184    
   1285000   297.04739     -444053.28     -440515.94      1384.4102      69.46501       61.583837    
   1286000   299.33368     -444080.75     -440516.18      1386.4217      57.730536      61.570411    
   1287000   302.33277     -444116.25     -440515.97      1390.8669      61.035655      61.568554    
   1288000   297.25986     -444055.75     -440515.88      1393.2936      69.88251       61.597322    
   1289000   300.84662     -444098.22     -440515.64      1395.3465      54.420487      61.572574    
   1290000   299.56498     -444083.53     -440516.21      1397.5166      61.149737      61.571121    
   1291000   299.1081      -444078.94     -440517.06      1403.4524      72.106246      61.6072      
   1292000   300.15228     -444091.19     -440516.87      1408.8489      69.408132      61.633825    
   1293000   298.89991     -444075.34     -440515.94      1413.6863      79.880904      61.69589     
   1294000   304.52664     -444142.09     -440515.69      1417.7705      67.11998       61.714276    
   1295000   301.74215     -444109.5      -440516.25      1421.8627      55.083437      61.691875    
   1296000   301.58175     -444108.28     -440516.94      1424.1685      57.823869      61.678851    
   1297000   298.45709     -444069.59     -440515.47      1425.5333      85.557912      61.758982    
   1298000   295.16653     -444031.38     -440516.43      1428.7614      76.571557      61.808523    
   1299000   297.32161     -444055.81     -440515.21      1434.9617      89.798197      61.901822    
   1300000   299.99878     -444089.12     -440516.64      1438.2757      92.485743      62.003429    
   1301000   299.26293     -444079.53     -440515.81      1441.9946      67.353242      62.021144    
   1302000   301.50756     -444106.84     -440516.39      1446.2328      53.226082      61.992117    
   1303000   297.83062     -444063.25     -440516.58      1450.6079      49.05728       61.949569    
   1304000   302.65252     -444120.84     -440516.76      1452.7078      47.096112      61.900869    
   1305000   295.26831     -444031.47     -440515.31      1457.4547      75.746212      61.946115    
   1306000   297.69082     -444060.59     -440515.59      1467.3678      73.671762      61.984309    
   1307000   297.25669     -444055.75     -440515.92      1470.6454      75.507951      62.028217    
   1308000   302.55476     -444119.06     -440516.14      1476.7674      87.424032      62.110404    
   1309000   301.93801     -444111.5      -440515.92      1479.5223      70.117821      62.136235    
   1310000   303.6011      -444130.88     -440515.49      1484.3924      64.106547      62.14257     
   1311000   295.13082     -444030.09     -440515.58      1490.168       60.403928      62.136997    
   1312000   296.92714     -444051.53     -440515.62      1494.7489      47.0287        62.088728    
   1313000   302.2055      -444115.59     -440516.83      1498.5949      50.004403      62.050243    
   1314000   300.57406     -444095.19     -440515.85      1502.7837      57.601983      62.036122    
   1315000   300.70539     -444096.69     -440515.79      1506.0507      61.667011      62.034953    
   1316000   299.94841     -444086.97     -440515.08      1507.9618      51.564183      62.001923    
   1317000   299.48588     -444083.06     -440516.68      1515.4014      57.509032      61.987794    
   1318000   301.28545     -444104.41     -440516.6       1519.5475      69.945695      62.01274     
   1319000   298.60719     -444072.44     -440516.52      1527.9535      67.172629      62.028865    
   1320000   299.49295     -444082.5      -440516.04      1532.189       66.473173      62.04271     
   1321000   300.54041     -444095.38     -440516.44      1534.2483      78.455083      62.09368     
   1322000   298.68049     -444072.22     -440515.43      1538.1091      77.836324      62.142419    
   1323000   300.94781     -444099.84     -440516.06      1545.8822      72.367097      62.173977    
   1324000   302.31695     -444116.22     -440516.13      1547.5936      70.206791      62.198693    
   1325000   304.80459     -444145.5      -440515.78      1548.9163      72.657631      62.230776    
   1326000   300.44263     -444093.72     -440515.95      1553.9151      72.385767      62.261831    
   1327000   299.65983     -444084.81     -440516.36      1557.6359      70.577387      62.287183    
   1328000   300.03169     -444089.31     -440516.43      1564.7947      55.543532      62.266686    
   1329000   295.25402     -444031.31     -440515.33      1572.7631      58.245453      62.2545      
   1330000   303.2958      -444128.34     -440516.6       1574.5367      57.196704      62.23922     
   1331000   302.25325     -444115.78     -440516.45      1578.4622      58.187591      62.227016    
   1332000   304.11304     -444137.56     -440516.08      1585.5008      57.632931      62.21322     
   1333000   299.05275     -444077.34     -440516.12      1592.9824      42.893106      62.155375    
   1334000   297.54212     -444059.34     -440516.11      1598.0944      77.51217       62.201217    
   1335000   294.12569     -444019.12     -440516.58      1599.8621      68.407035      62.219686    
   1336000   300.0135      -444088.56     -440515.9       1605.5619      61.146465      62.216502    
   1337000   300.62455     -444096.91     -440516.97      1613.084       54.873554      62.194777    
   1338000   295.92139     -444039.38     -440515.44      1614.6369      68.815296      62.214307    
   1339000   303.29214     -444128.44     -440516.73      1618.1724      68.409851      62.232529    
   1340000   297.97319     -444065.28     -440516.92      1626.2989      60.034114      62.226082    
   1341000   299.87689     -444086.75     -440515.72      1632.7653      70.209952      62.249426    
   1342000   299.1006      -444077.97     -440516.18      1641.9416      63.640685      62.253483    
   1343000   294.37036     -444021.12     -440515.66      1646.0541      54.056248      62.229653    
   1344000   294.0521      -444017        -440515.33      1651.3521      61.916039      62.228744    
   1345000   301.32743     -444105.5      -440517.19      1656.9635      58.672879      62.218467    
   1346000   302.73654     -444120.62     -440515.54      1661.0301      64.383369      62.224706    
   1347000   298.03699     -444064.78     -440515.66      1665.1694      59.839278      62.217852    
   1348000   299.25903     -444079.66     -440515.98      1669.2964      59.56232       62.210243    
   1349000   300.45973     -444094.09     -440516.12      1676.7897      65.099098      62.218496    
   1350000   296.63061     -444048.59     -440516.22      1680.6539      56.391755      62.201896    
   1351000   298.27561     -444067.62     -440515.66      1685.5279      67.868404      62.217994    
   1352000   298.76919     -444074.41     -440516.56      1688.0276      69.696031      62.239178    
   1353000   300.83751     -444098.34     -440515.87      1696.0764      66.270665      62.250567    
   1354000   301.28997     -444103.69     -440515.83      1704.7243      68.291983      62.267585    
   1355000   302.67993     -444120.78     -440516.37      1706.7888      60.628615      62.262981    
   1356000   298.95945     -444076.22     -440516.11      1711.3654      63.752163      62.267152    
   1357000   300.71293     -444097.09     -440516.1       1715.6681      52.495322      62.239857    
   1358000   300.44284     -444093.16     -440515.38      1725.9506      41.350853      62.18167     
   1359000   300.86639     -444099.81     -440516.99      1730.2029      31.836636      62.097378    
   1360000   306.43685     -444164.84     -440515.69      1732.9351      51.368613      62.067659    
   1361000   301.77876     -444109.94     -440516.25      1741.1726      57.324149      62.054555    
   1362000   294.87464     -444027.88     -440516.41      1748.4704      45.24332       62.008243    
   1363000   299.65273     -444084.38     -440516.01      1755.0482      42.96273       61.95592     
   1364000   299.05013     -444077.34     -440516.15      1759.3335      62.817879      61.958282    
   1365000   299.51847     -444082.81     -440516.05      1761.3832      44.435228      61.910405    
   1366000   306.0064      -444160.72     -440516.69      1768.9868      59.615054      61.90415     
   1367000   306.74763     -444167.97     -440515.11      1772.6516      65.057928      61.91272     
   1368000   299.58463     -444083.12     -440515.57      1780.0893      59.421124      61.905968    
   1369000   298.59502     -444070.75     -440514.98      1785.0985      76.093121      61.944312    
   1370000   302.08686     -444113.41     -440516.05      1788.7227      64.878028      61.952219    
   1371000   303.86264     -444134.81     -440516.31      1793.2105      72.40035       61.980306    
   1372000   298.25675     -444067.44     -440515.7       1794.5736      65.059561      61.988561    
   1373000   298.14653     -444066.34     -440515.91      1800.2028      68.115715      62.004944    
   1374000   303.57985     -444131.03     -440515.9       1807.5538      57.530318      61.993011    
   1375000   299.0901      -444078        -440516.33      1811.5452      60.800442      61.98984     
   1376000   301.93207     -444111.09     -440515.59      1815.1901      58.029371      61.979334    
   1377000   299.1782      -444079        -440516.29      1822.7425      58.968167      61.971368    
   1378000   298.27006     -444068.03     -440516.13      1826.9274      81.53886       62.022998    
   1379000   298.83028     -444074.16     -440515.58      1834.2239      88.057167      62.091509    
   1380000   296.05456     -444040.97     -440515.45      1839.7203      81.791437      62.143215    
   1381000   303.69611     -444131.44     -440514.92      1844.5076      73.916999      62.174036    
   1382000   301.05427     -444101.09     -440516.04      1845.9886      71.721306      62.198964    
   1383000   298.77911     -444073.47     -440515.51      1851.2796      50.907834      62.16956     
   1384000   302.35152     -444116.31     -440515.81      1855.4386      53.716623      62.147604    
   1385000   301.28021     -444103.34     -440515.6       1859.2974      46.510776      62.107094    
   1386000   303.69104     -444132.66     -440516.2       1866.5354      49.210859      62.07377     
   1387000   298.39576     -444070.12     -440516.73      1868.6604      25.289617      61.978966    
   1388000   298.15777     -444065.88     -440515.31      1870.2254      31.035717      61.89942     
   1389000   299.15032     -444078.78     -440516.4       1872.0113      41.854268      61.848022    
   1390000   298.95325     -444076.03     -440516         1876.6766      42.543546      61.79865     
   1391000   297.58225     -444059.28     -440515.57      1882.5967      38.858891      61.740131    
   1392000   297.63583     -444060.44     -440516.09      1884.8081      45.134816      61.697878    
   1393000   296.17585     -444040.94     -440513.98      1889.8156      37.247923      61.635822    
   1394000   299.41448     -444081.41     -440515.88      1894.665       44.729945      61.593022    
   1395000   300.54168     -444095.22     -440516.27      1896.8566      43.778851      61.548037    
   1396000   301.39403     -444104.22     -440515.12      1904.938       46.113486      61.509159    
   1397000   301.68361     -444108.31     -440515.76      1909.008       61.266404      61.508549    
   1398000   291.86468     -443991.12     -440515.5       1910.6521      54.774738      61.491673    
   1399000   302.39479     -444116.94     -440515.92      1914.4943      63.369936      61.496368    
   1400000   297.68114     -444060.25     -440515.36      1916.383       60.068226      61.492807    
   1401000   298.59067     -444071.38     -440515.66      1923.8441      56.699104      61.480882    
   1402000   296.00469     -444040.38     -440515.45      1928.7133      46.426572      61.443526    
   1403000   297.49053     -444058.31     -440515.7       1936.5881      49.55193       61.414092    
   1404000   301.60238     -444107.88     -440516.29      1938.2158      61.819327      61.415092    
   1405000   302.6526      -444120.03     -440515.94      1939.9807      64.244101      61.42206     
   1406000   296.74262     -444049.22     -440515.51      1944.597       62.280521      61.42417     
   1407000   299.46561     -444081.81     -440515.68      1949.2429      62.156272      61.425964    
   1408000   300.00864     -444088.06     -440515.46      1953.4065      63.672814      61.431458    
   1409000   299.15137     -444078.59     -440516.2       1958.349       58.576407      61.424494    
   1410000   297.87077     -444062.72     -440515.57      1964.5798      67.49114       61.439255    
   1411000   302.83734     -444122.12     -440515.84      1968.4761      65.867848      61.450004    
   1412000   294.83009     -444026.44     -440515.5       1977.4038      75.530862      61.484098    
   1413000   299.88527     -444086.5      -440515.37      1981.5587      68.693119      61.501511    
   1414000   297.15707     -444053.84     -440515.2       1983.6013      61.577889      61.501695    
   1415000   296.26531     -444043.38     -440515.35      1987.1748      69.087336      61.51993     
   1416000   301.47305     -444106.06     -440516.02      1991.6578      57.223441      61.509626    
   1417000   295.19203     -444031.09     -440515.85      1995.2149      60.185493      61.506459    
   1418000   304.3668      -444140.41     -440515.9       2000.4987      58.693121      61.499744    
   1419000   298.62175     -444072        -440515.91      2004.919       68.312521      61.515965    
   1420000   301.24934     -444103.91     -440516.53      2007.2875      62.237907      61.51768     
   1421000   304.22641     -444139.44     -440516.61      2009.5903      43.865362      61.47585     
   1422000   298.40316     -444069.19     -440515.7       2014.0016      53.50526       61.457007    
   1423000   300.57642     -444094.56     -440515.2       2020.2549      67.171891      61.470485    
   1424000   297.99278     -444064.41     -440515.81      2023.4142      68.183543      61.486281    
   1425000   295.53238     -444035.56     -440516.26      2027.2536      59.837187      61.48241     
   1426000   295.42613     -444033.47     -440515.44      2032.854       63.331216      61.486739    
   1427000   302.20489     -444115.28     -440516.52      2037.6816      63.638747      61.491767    
   1428000   298.17108     -444065.41     -440514.68      2039.5691      57.244394      61.481867    
   1429000   293.83572     -444013.75     -440514.66      2042.0168      57.025249      61.471502    
   1430000   300.82944     -444097.59     -440515.22      2048.794       63.435926      61.47606     
   1431000   301.34923     -444104.16     -440515.59      2052.217       66.357191      61.487359    
   1432000   302.19951     -444113.91     -440515.21      2056.597       64.19516       61.493613    
   1433000   300.34587     -444091.47     -440514.85      2057.8707      44.609378      61.454709    
   1434000   302.89382     -444122.12     -440515.16      2059.6052      48.317834      61.424509    
   1435000   301.30374     -444103.66     -440515.63      2061.5154      56.84036       61.413995    
   1436000   303.0066      -444123.38     -440515.07      2067.39        67.907508      61.428855    
   1437000   297.85758     -444062.62     -440515.64      2071.3158      53.223076      61.41012     
   1438000   297.53954     -444058.09     -440514.89      2072.8558      46.003931      61.375026    
   1439000   303.8334      -444133.41     -440515.26      2078.9076      64.634161      61.382433    
   1440000   305.04654     -444148.47     -440515.87      2087.7545      63.33          61.386849    
   1441000   302.68016     -444119.88     -440515.46      2094.9178      78.367454      61.425267    
   1442000   298.46763     -444069.69     -440515.43      2101.4034      76.543499      61.459394    
   1443000   299.1665      -444077.59     -440515.02      2106.6526      72.097938      61.483355    
   1444000   299.76048     -444085.25     -440515.6       2110.6358      59.284303      61.478413    
   1445000   296.04975     -444041.25     -440515.79      2118.3277      69.971526      61.497456    
   1446000   295.64154     -444036.28     -440515.68      2122.349       70.660149      61.517954    
   1447000   302.31036     -444115.88     -440515.86      2124.1972      67.581154      61.531488    
   1448000   303.52457     -444129.16     -440514.68      2128.2746      64.656235      61.538447    
   1449000   304.8713      -444146.09     -440515.58      2135.1709      60.239822      61.535561    
   1450000   303.73446     -444133.47     -440516.5       2139.4094      54.776717      61.520575    
   1451000   299.46743     -444082.62     -440516.47      2146.1969      57.983236      61.512749    
   1452000   301.27155     -444103.19     -440515.54      2152.7577      36.013321      61.456459    
   1453000   300.13982     -444089.31     -440515.15      2157.4873      54.852662      61.441913    
   1454000   303.7467      -444132.53     -440515.41      2164.4978      79.042627      61.480596    
   1455000   299.65455     -444084.94     -440516.55      2169.3132      86.34474       61.535123    
   1456000   296.57797     -444047.16     -440515.41      2173.2053      83.369677      61.582901    
   1457000   297.534       -444058.97     -440515.83      2180.5429      59.389997      61.578113    
   1458000   298.25042     -444066.84     -440515.18      2184.6466      70.758989      61.598115    
   1459000   293.69458     -444012        -440514.59      2188.6234      70.763348      61.618039    
   1460000   298.6739      -444072.38     -440515.67      2195.7884      46.937309      61.586194    
   1461000   302.8163      -444122.06     -440516.02      2198.2702      72.245169      61.609265    
   1462000   300.38446     -444091.69     -440514.61      2202.0154      62.390161      61.610952    
   1463000   299.06044     -444077.09     -440515.78      2209.7114      48.811396      61.583366    
   1464000   300.25131     -444090.56     -440515.07      2211.8778      41.752223      61.540719    
   1465000   302.49343     -444117.72     -440515.53      2215.6358      75.7491        61.571209    
   1466000   297.32702     -444055.44     -440514.77      2219.5683      70.432943      61.590185    
   1467000   298.15756     -444065.94     -440515.38      2221.8538      54.984135      61.576069    
   1468000   296.26171     -444043.44     -440515.45      2225.8848      60.420203      61.573605    
   1469000   298.98212     -444075.28     -440514.9       2230.0759      81.407925      61.615805    
   1470000   296.65717     -444047.81     -440515.12      2232.0396      67.673381      61.628667    
   1471000   299.87069     -444086.31     -440515.35      2234.2103      64.426828      61.634595    
   1472000   296.24899     -444043.38     -440515.54      2238.1465      64.072801      61.63975     
   1473000   300.01426     -444088.88     -440516.2       2243.7234      55.509657      61.626817    
   1474000   297.63362     -444059.56     -440515.24      2248.6305      46.027521      61.593976    
   1475000   298.95045     -444075.66     -440515.65      2256.3099      65.256271      61.60167     
   1476000   296.96634     -444051.94     -440515.56      2262.4896      59.262855      61.596767    
   1477000   298.03519     -444064.19     -440515.08      2264.9361      55.813747      61.584669    
   1478000   299.3364      -444079.25     -440514.65      2272.7367      61.914082      61.585356    
   1479000   298.15875     -444065.59     -440515.02      2274.4511      76.229878      61.615866    
   1480000   304.55325     -444142.66     -440515.93      2282.7235      80.001635      61.65409     
   1481000   304.39644     -444140.31     -440515.46      2284.8016      63.910314      61.658771    
   1482000   298.65658     -444071.66     -440515.15      2290.3672      45.24406       61.624786    
   1483000   295.84835     -444037.66     -440514.59      2293.3524      62.175551      61.625924    
   1484000   303.60962     -444130.88     -440515.39      2294.8053      44.79108       61.591213    
   1485000   298.39989     -444068.22     -440514.77      2296.8365      48.996201      61.565297    
   1486000   301.75407     -444109.66     -440516.27      2304.4351      54.134766      61.550039    
   1487000   302.8196      -444121.66     -440515.58      2306.184       46.899038      61.520017    
   1488000   300.15768     -444089.91     -440515.53      2308.6592      48.895876      61.494201    
   1489000   298.6375      -444071.31     -440515.04      2313.2882      45.531422      61.461624    
   1490000   297.69968     -444059.78     -440514.67      2317.6303      66.0682        61.471006    
   1491000   293.6565      -444010.94     -440513.98      2319.4751      61.077093      61.470205    
   1492000   298.67869     -444072.44     -440515.67      2325.2673      54.051396      61.455157    
   1493000   297.96551     -444063.44     -440515.16      2327.3553      41.198766      61.414152    
   1494000   298.86836     -444073.94     -440514.91      2332.4145      39.089948      61.369052    
   1495000   294.6739      -444024.09     -440515.02      2337.5773      35.245699      61.316384    
   1496000   294.73178     -444024.03     -440514.27      2342.0813      38.925144      61.271332    
   1497000   295.5322      -444034.25     -440514.95      2350.1001      31.218509      61.210984    
   1498000   299.51202     -444081.69     -440515         2355.7978      25.329195      61.139077    
   1499000   292.31907     -443995.22     -440514.18      2360.6043      36.497102      61.089793    
   1500000   295.60603     -444035.97     -440515.79      2365.0881      35.720629      61.039156    
Loop time of 12987.7 on 1 procs for 500000 steps with 3996 atoms

Performance: 1.663 ns/day, 14.431 hours/ns, 38.498 timesteps/s, 153.837 katom-step/s
99.9% CPU use with 1 MPI tasks x 1 OpenMP threads

MPI task timing breakdown:
Section |  min time  |  avg time  |  max time  |%varavg| %total
---------------------------------------------------------------
Pair    | 12352      | 12352      | 12352      |   0.0 | 95.10
Bond    | 0.15291    | 0.15291    | 0.15291    |   0.0 |  0.00
Neigh   | 17.756     | 17.756     | 17.756     |   0.0 |  0.14
Comm    | 11.584     | 11.584     | 11.584     |   0.0 |  0.09
Output  | 0.15393    | 0.15393    | 0.15393    |   0.0 |  0.00
Modify  | 578.33     | 578.33     | 578.33     |   0.0 |  4.45
Other   |            | 28.21      |            |       |  0.22

Nlocal:           3996 ave        3996 max        3996 min
Histogram: 1 0 0 0 0 0 0 0 0 0
Nghost:          16497 ave       16497 max       16497 min
Histogram: 1 0 0 0 0 0 0 0 0 0
Neighs:              0 ave           0 max           0 min
Histogram: 1 0 0 0 0 0 0 0 0 0
FullNghs:  3.16347e+06 ave 3.16347e+06 max 3.16347e+06 min
Histogram: 1 0 0 0 0 0 0 0 0 0

Total # of neighbors = 3163474
Ave neighs/atom = 791.66016
Ave special neighs/atom = 0
Neighbor list builds = 5601
Dangerous builds = 0
write_restart   kappa_restart_3
System init for write_restart ...
Total wall time: 3:36:28
