LAMMPS (22 Jul 2025)
KOKKOS mode with Kokkos version 4.6.2 is enabled
  will use up to 1 GPU(s) per node
  using 1 OpenMP thread(s) per MPI task
package kokkos
read_restart    kappa_restart_5
Reading restart file ...
  restart file = 22 Jul 2025, LAMMPS = 22 Jul 2025
  restoring atom style full/kk from restart
  orthogonal box = (0.71446759 0.71446759 0.71446759) to (36.662232 36.662232 36.662232)
  1 by 1 by 1 MPI processor grid
  pair style bamboo stores no restart info
  3996 atoms
Finding 1-2 1-3 1-4 neighbors ...
  special bond factors lj:    0        0        0       
  special bond factors coul:  0        0        0       
     0 = max # of 1-2 neighbors
     0 = max # of 1-3 neighbors
     0 = max # of 1-4 neighbors
     1 = max # of special neighbors
  special bonds CPU = 0.002 seconds
  read_restart CPU = 0.049 seconds

pair_style      bamboo 5.0 5.0 10.0 1
pair_coeff /mnt/bn/ai4s-hl/bamboo/bamboo_finetune/thermal-no-all-13-ft-03/k0r0/density_r2/k0r0-density_r2-0/checkpoints/finetune.pt H C O

neighbor        3.0 bin
neigh_modify	delay 0 check yes

compute         ke all ke/atom
variable        kB equal 0.0019872041       # Boltzmann const. (kcal/mol·K)
variable        temp atom c_ke/(1.5*${kB})  # per-atom temperature (K)
variable        temp atom c_ke/(1.5*0.0019872041)  

fix             1 all nve

compute         layers all chunk/atom bin/1d z lower 0.05 units reduced
fix             2 all ave/chunk 10 100 1000 layers v_temp file profile6.mp
fix             3 all thermal/conductivity 500 z 20

variable        tdiff equal f_2[11][3]-f_2[1][3]
thermo_style    custom step temp epair etotal f_3 v_tdiff
thermo_modify   colname f_3 E_delta colname v_tdiff dTemp_step

fix             ave all ave/time 1 1 1000 v_tdiff ave running
thermo_style    custom step temp epair etotal f_3 v_tdiff f_ave
WARNING: New thermo_style command, previous thermo_modify settings will be lost (src/code.byted.org/data/lammps_bamboo/src/output.cpp:912)
thermo_modify   colname f_3 E_delta colname v_tdiff dTemp_step colname f_ave dTemp

thermo          1000
run             500000
Unused restart file peratom fix info:
  fix style: STORE/ATOM, fix ID: layers_COMPUTE_STORE
Neighbor list info ...
  update: every = 1 steps, delay = 0 steps, check = yes
  max neighbors/atom: 2000, page size: 100000
  master list distance cutoff = 13
  ghost atom cutoff = 13
  binsize = 13, bins = 3 3 3
  1 neighbor lists, perpetual/occasional/extra = 1 0 0
  (1) pair bamboo/kk, perpetual
      attributes: full, newton off, kokkos_device
      pair build: full/bin/kk/device
      stencil: full/bin/3d
      bin: kk/device
WARNING: Fix STORE/ATOM not compatible with sending data in Kokkos communication (src/code.byted.org/data/lammps_bamboo/src/KOKKOS/comm_kokkos.cpp:766)
WARNING: Fix with atom-based arrays not compatible with sending data in Kokkos communication, switching to classic exchange/border communication (src/code.byted.org/data/lammps_bamboo/src/KOKKOS/comm_kokkos.cpp:779)
WARNING: Fix STORE/ATOM not compatible with Kokkos sorting on device (src/code.byted.org/data/lammps_bamboo/src/KOKKOS/atom_kokkos.cpp:212)
WARNING: Fix with atom-based arrays not compatible with Kokkos sorting on device, switching to classic host sorting (src/code.byted.org/data/lammps_bamboo/src/KOKKOS/atom_kokkos.cpp:218)
Per MPI rank memory allocation (min/avg/max) = 8.635 | 8.635 | 8.635 Mbytes
   Step          Temp          E_pair         TotEng        E_delta       dTemp_step       dTemp     
   2500000   295.11783     -444027        -440512.64      0              0              0            
   2501000   300.18231     -444087.59     -440512.92      4.5691498      71.289294      35.644647    
   2502000   296.50547     -444042.59     -440511.71      10.88921       41.257086      37.51546     
   2503000   300.22587     -444087.84     -440512.65      12.811835      43.345808      38.973047    
   2504000   299.54899     -444080.47     -440513.34      16.727549      45.927108      40.363859    
   2505000   295.51968     -444031.69     -440512.54      19.122084      48.02393       41.640538    
   2506000   301.6974      -444105.47     -440512.75      20.694194      41.694274      41.648214    
   2507000   303.8846      -444131.62     -440512.87      25.452784      56.134982      43.45906     
   2508000   298.68088     -444070.06     -440513.27      31.649835      56.02474       44.855247    
   2509000   303.57756     -444128.41     -440513.3       36.41314       54.953066      45.865029    
   2510000   298.16456     -444063.69     -440513.04      37.739931      52.221962      46.442932    
   2511000   298.74923     -444070.44     -440512.83      45.5113        55.214734      47.173915    
   2512000   300.97591     -444096.84     -440512.72      47.177228      68.927696      48.847283    
   2513000   296.3499      -444040.72     -440511.68      53.849526      69.636076      50.332197    
   2514000   298.63236     -444068.97     -440512.75      57.825363      80.326102      52.331791    
   2515000   300.08455     -444085.72     -440512.21      64.891688      98.622001      55.224929    
   2516000   297.89713     -444059.5      -440512.04      67.07274       83.61277       56.894802    
   2517000   302.17106     -444111.12     -440512.77      71.886647      88.355587      58.642623    
   2518000   299.01209     -444073.91     -440513.17      76.673547      57.19106       58.566225    
   2519000   304.33901     -444136.22     -440512.05      84.443229      84.88304       59.882066    
   2520000   297.96494     -444060.53     -440512.26      86.729575      81.968123      60.933783    
   2521000   302.60202     -444117.09     -440513.61      90.604222      64.241182      61.084119    
   2522000   302.65974     -444117.62     -440513.45      94.601362      90.340801      62.356149    
   2523000   297.8019      -444058.84     -440512.52      96.457003      77.371976      62.981808    
   2524000   303.70382     -444129.16     -440512.55      100.35181      70.074137      63.265501    
   2525000   302.75521     -444118.09     -440512.78      108.60025      89.150275      64.26107     
   2526000   298.01348     -444062.06     -440513.22      113.64805      79.028227      64.808001    
   2527000   300.95301     -444096.62     -440512.78      114.99493      84.729827      65.519495    
   2528000   298.6003      -444068.62     -440512.79      119.73204      71.549699      65.727433    
   2529000   300.95645     -444096.38     -440512.48      121.73265      65.335144      65.714357    
   2530000   302.57        -444115.53     -440512.43      123.6214       84.309404      66.314197    
   2531000   302.39487     -444113.62     -440512.61      134.14321      71.961246      66.490667    
   2532000   305.09031     -444146.19     -440513.07      135.47772      85.021356      67.052203    
   2533000   298.02429     -444062.16     -440513.18      139.43811      85.030098      67.580965    
   2534000   297.78547     -444057.84     -440511.71      143.16392      71.933962      67.705336    
   2535000   296.43097     -444042.25     -440512.25      147.96687      62.17143       67.551617    
   2536000   301.99472     -444108.91     -440512.65      149.84878      73.584791      67.714675    
   2537000   302.67949     -444116.72     -440512.31      154.20574      76.07633       67.934719    
   2538000   300.19623     -444088.06     -440513.22      161.86832      82.489689      68.307923    
   2539000   297.07785     -444050.12     -440512.42      165.86866      73.419333      68.435709    
   2540000   298.97179     -444073.25     -440512.99      172.00358      61.219799      68.259711    
   2541000   301.32626     -444101.91     -440513.61      175.90451      44.477535      67.693469    
   2542000   298.75111     -444070.81     -440513.18      178.04407      48.996669      67.258659    
   2543000   297.8461      -444059.06     -440512.21      185.60327      62.866007      67.158826    
   2544000   300.90498     -444096.16     -440512.88      188.99009      52.503316      66.833148    
   2545000   297.86048     -444060.41     -440513.38      190.19228      59.211238      66.667455    
   2546000   301.15572     -444099.34     -440513.08      198.53299      66.338668      66.660459    
   2547000   300.82185     -444095.78     -440513.49      203.28305      65.852055      66.643617    
   2548000   297.79644     -444059        -440512.74      207.61526      55.18011       66.409668    
   2549000   299.56549     -444079.88     -440512.55      212.4469       49.34135       66.068302    
   2550000   298.41942     -444066.72     -440513.04      221.31635      49.540366      65.744225    
   2551000   300.73243     -444094.69     -440513.46      228.55205      71.872237      65.862071    
   2552000   297.27976     -444052.88     -440512.77      234.10288      57.927245      65.712357    
   2553000   298.44592     -444065.88     -440511.88      238.93278      64.986843      65.698922    
   2554000   303.65777     -444129.22     -440513.16      244.01632      61.989821      65.631484    
   2555000   295.54692     -444031.97     -440512.5       249.04292      68.084721      65.675292    
   2556000   296.2341      -444039.91     -440512.25      251.20737      71.795235      65.782659    
   2557000   299.76499     -444082.41     -440512.7       255.60715      64.719936      65.764336    
   2558000   297.66056     -444056.75     -440512.11      260.53726      73.782583      65.900239    
   2559000   299.10195     -444074.22     -440512.41      266.58819      71.863582      65.999628    
   2560000   298.78158     -444072.34     -440514.35      270.71484      64.177126      65.969751    
   2561000   300.55625     -444091.81     -440512.69      277.20894      68.320909      66.007673    
   2562000   300.46641     -444090.53     -440512.48      278.93157      64.162556      65.978385    
   2563000   300.51614     -444091.69     -440513.04      285.01708      73.311787      66.092969    
   2564000   298.47957     -444067.16     -440512.76      291.30323      68.101143      66.123864    
   2565000   301.87864     -444107.78     -440512.91      296.80413      68.594886      66.161304    
   2566000   301.4206      -444101.31     -440511.89      300.88613      52.51591       65.957641    
   2567000   297.43124     -444054.59     -440512.68      308.08744      80.5401        66.172089    
   2568000   299.39472     -444078.53     -440513.24      312.74272      77.769561      66.340169    
   2569000   298.37276     -444065.19     -440512.06      316.99579      85.999684      66.621019    
   2570000   303.17523     -444123.53     -440513.22      320.7164       73.968661      66.724507    
   2571000   301.49224     -444104.16     -440513.89      325.45865      58.274159      66.607141    
   2572000   300.12837     -444087.41     -440513.38      329.60234      74.708906      66.718124    
   2573000   297.14973     -444052.09     -440513.53      333.19742      69.047926      66.749608    
   2574000   300.33849     -444089.09     -440512.56      337.55811      69.720036      66.789213    
   2575000   295.99695     -444037.59     -440512.76      339.15083      63.675084      66.748238    
   2576000   298.73963     -444070.78     -440513.29      343.40106      63.874149      66.710912    
   2577000   296.17871     -444039.81     -440512.82      352.14066      56.376035      66.578414    
   2578000   300.86421     -444096.09     -440513.3       355.72279      67.866696      66.594721    
   2579000   300.08687     -444086.38     -440512.84      359.95572      78.072055      66.738188    
   2580000   297.19442     -444051.34     -440512.25      365.77901      78.669698      66.88549     
   2581000   302.38767     -444114.09     -440513.16      367.77442      71.868713      66.946261    
   2582000   297.46036     -444054.53     -440512.27      369.30932      68.60947       66.9663      
   2583000   297.11503     -444050.72     -440512.57      376.45802      63.414593      66.924018    
   2584000   302.39563     -444114.91     -440513.88      381.35747      58.402105      66.82376     
   2585000   299.67533     -444081.28     -440512.65      387.26461      60.041829      66.7449      
   2586000   298.5978      -444069.53     -440513.73      393.24054      62.244426      66.693171    
   2587000   300.77438     -444095.44     -440513.72      395.51596      51.737621      66.523221    
   2588000   298.5379      -444068.19     -440513.1       399.63946      73.024562      66.59627     
   2589000   299.8211      -444083.19     -440512.82      403.96307      70.641675      66.641219    
   2590000   302.03754     -444109.75     -440512.99      411.16844      73.574049      66.717404    
   2591000   300.44242     -444090.59     -440512.82      416.06749      67.465092      66.725531    
   2592000   297.6689      -444056.72     -440511.98      421.50476      66.874267      66.72713     
   2593000   301.41304     -444102.28     -440512.95      422.92136      67.592146      66.736333    
   2594000   300.0182      -444086.22     -440513.5       430.90316      58.384968      66.648424    
   2595000   297.85471     -444059.59     -440512.64      438.39737      55.294794      66.530157    
   2596000   298.86228     -444071.19     -440512.23      442.0253       69.369726      66.559431    
   2597000   296.19808     -444038.66     -440511.43      446.68932      61.651723      66.509352    
   2598000   298.34488     -444065.47     -440512.68      448.0775       65.691074      66.501086    
   2599000   299.07491     -444074.78     -440513.3       452.24259      57.093993      66.407016    
   2600000   295.99047     -444037.06     -440512.31      453.8925       46.573793      66.210647    
   2601000   302.28826     -444112.69     -440512.94      462.38354      61.767772      66.167089    
   2602000   297.27082     -444052.56     -440512.56      464.83267      61.072249      66.117625    
   2603000   302.94617     -444120.62     -440513.04      472.02899      62.24904       66.080427    
   2604000   299.83034     -444083.22     -440512.74      479.01121      85.835084      66.268567    
   2605000   300.34462     -444088.53     -440511.93      487.05992      82.056834      66.417513    
   2606000   299.03862     -444073.91     -440512.85      491.96343      71.80964       66.467906    
   2607000   298.49457     -444067.75     -440513.18      496.35302      69.904329      66.499725    
   2608000   295.90622     -444037.06     -440513.31      500.79068      68.403875      66.517194    
   2609000   300.72047     -444093.78     -440512.7       508.73544      70.921806      66.557236    
   2610000   297.54223     -444056.22     -440512.99      516.26372      88.215934      66.75236     
   2611000   299.06919     -444074.97     -440513.55      520.02061      83.271353      66.899851    
   2612000   297.24541     -444052.94     -440513.24      524.52544      84.360464      67.054369    
   2613000   296.46896     -444043.62     -440513.17      532.29119      81.837962      67.18405     
   2614000   299.70591     -444081.78     -440512.78      536.46187      73.647095      67.24025     
   2615000   297.34337     -444054.56     -440513.7       543.60925      73.39981       67.29335     
   2616000   298.23403     -444064.44     -440512.97      545.3794       67.190357      67.29247     
   2617000   299.36016     -444077.88     -440512.99      546.96686      85.727573      67.448699    
   2618000   299.03547     -444073.75     -440512.74      551.79488      88.699889      67.627281    
   2619000   301.60429     -444104.72     -440513.11      558.16636      68.313797      67.633002    
   2620000   293.10688     -444002.62     -440512.21      564.59574      87.329976      67.795787    
   2621000   299.77081     -444082.72     -440512.95      568.24601      79.945166      67.895372    
   2622000   295.6535      -444033.75     -440513.01      572.13896      74.290938      67.947368    
   2623000   297.89655     -444060.16     -440512.7       574.31017      67.907641      67.947048    
   2624000   300.66164     -444093.59     -440513.21      578.52302      62.174683      67.900869    
   2625000   297.32102     -444053.66     -440513.06      581.74144      63.998696      67.869899    
   2626000   299.0536      -444074.31     -440513.08      588.46105      58.624709      67.797103    
   2627000   302.66723     -444116.03     -440511.77      592.62544      42.247237      67.597494    
   2628000   301.38541     -444102.5      -440513.5       599.93696      55.287229      67.502066    
   2629000   296.78869     -444046.69     -440512.43      607.34479      55.973325      67.413383    
   2630000   302.20725     -444111.41     -440512.62      612.19041      62.053169      67.372465    
   2631000   299.55804     -444079.41     -440512.17      616.92054      54.321114      67.273592    
   2632000   301.04382     -444098.53     -440513.6       620.73429      67.229795      67.273262    
   2633000   296.44612     -444042.25     -440512.07      626.80266      68.602764      67.283184    
   2634000   297.93027     -444061.25     -440513.4       631.44754      60.181558      67.230579    
   2635000   297.74526     -444057.41     -440511.76      635.64622      52.881142      67.125069    
   2636000   300.00646     -444085.03     -440512.45      637.38295      68.729743      67.136782    
   2637000   300.4744      -444091.69     -440513.54      640.99654      58.080279      67.071155    
   2638000   303.53389     -444127.75     -440513.17      642.74288      54.113473      66.977934    
   2639000   299.22463     -444075.84     -440512.58      644.67868      50.468468      66.860009    
   2640000   301.3654      -444101.56     -440512.8       649.14199      71.610313      66.893699    
   2641000   304.44739     -444138.38     -440512.91      656.57564      72.080102      66.930223    
   2642000   300.81558     -444095.47     -440513.26      661.01845      66.546387      66.927539    
   2643000   303.84656     -444130.75     -440512.44      665.54664      68.133396      66.935913    
   2644000   297.37063     -444054.31     -440513.12      672.1859       69.49877       66.953588    
   2645000   300.13407     -444086.31     -440512.22      677.02066      78.112644      67.03002     
   2646000   300.08381     -444086.38     -440512.88      683.19382      60.924519      66.988486    
   2647000   301.96765     -444108.84     -440512.91      690.40587      50.596855      66.877732    
   2648000   301.12565     -444098.75     -440512.84      696.09017      55.021078      66.798157    
   2649000   305.16154     -444146.97     -440513         700.64708      62.373142      66.768657    
   2650000   298.13768     -444062.75     -440512.43      702.44121      60.373852      66.726307    
   2651000   294.4079      -444018.03     -440512.12      706.55522      56.209069      66.657115    
   2652000   301.71415     -444105.12     -440512.21      713.56859      47.605823      66.532597    
   2653000   300.91095     -444095.66     -440512.31      723.23413      51.20261       66.433051    
   2654000   307.65307     -444176.62     -440512.99      728.71105      67.033871      66.436927    
   2655000   301.36754     -444101.16     -440512.37      730.34077      68.589162      66.450724    
   2656000   301.76837     -444106.44     -440512.88      734.38428      66.57384       66.451508    
   2657000   300.16776     -444087.22     -440512.72      742.16906      76.585944      66.51565     
   2658000   305.03963     -444145.25     -440512.74      743.79158      76.097528      66.575913    
   2659000   296.44819     -444043.22     -440513.01      749.46323      68.59922       66.588559    
   2660000   296.06148     -444037.81     -440512.21      756.59586      75.796018      66.645748    
   2661000   301.00557     -444096.38     -440511.9       760.89342      92.609298      66.806017    
   2662000   303.76808     -444130.25     -440512.88      762.53001      70.783395      66.830418    
   2663000   302.19924     -444111.28     -440512.59      770.50398      73.034465      66.868248    
   2664000   297.98451     -444061.31     -440512.81      774.54009      63.535431      66.848049    
   2665000   298.36919     -444065.97     -440512.89      779.8588       70.946818      66.87274     
   2666000   298.23517     -444064.44     -440512.95      785.55095      60.578971      66.835053    
   2667000   293.11121     -444002.16     -440511.69      791.5471       62.821095      66.81116     
   2668000   301.4853      -444103.22     -440513.03      793.48042      73.135567      66.848583    
   2669000   303.21141     -444124        -440513.26      795.50275      70.873863      66.872261    
   2670000   298.90974     -444071.28     -440511.76      797.30446      78.887607      66.942526    
   2671000   299.84346     -444083.31     -440512.68      801.34348      68.154438      66.949572    
   2672000   303.00763     -444121.09     -440512.78      803.02174      67.512227      66.952824    
   2673000   296.62864     -444044.81     -440512.46      810.31431      55.944933      66.889561    
   2674000   297.64845     -444056.91     -440512.41      819.06235      55.510519      66.824538    
   2675000   297.76848     -444058.66     -440512.73      824.01639      45.902249      66.705661    
   2676000   297.0733      -444049.16     -440511.51      830.49198      38.812566      66.548073    
   2677000   303.02339     -444120.84     -440512.34      835.81874      44.950055      66.426736    
   2678000   297.06665     -444049.88     -440512.31      837.47098      46.304168      66.314319    
   2679000   301.57233     -444102.84     -440511.62      844.63087      54.52684       66.248833    
   2680000   297.47443     -444054.44     -440512.01      850.70113      71.157673      66.275954    
   2681000   298.36718     -444064.84     -440511.79      855.4988       69.113069      66.291542    
   2682000   301.61856     -444103.47     -440511.69      863.16805      73.319797      66.329948    
   2683000   300.41014     -444089.91     -440512.52      865.70153      61.209792      66.302121    
   2684000   298.92948     -444072.19     -440512.43      869.65962      58.56161       66.260281    
   2685000   300.28132     -444087.91     -440512.06      873.34433      65.994553      66.258852    
   2686000   300.32979     -444088.53     -440512.1       878.65423      64.413476      66.248984    
   2687000   300.84456     -444094.97     -440512.41      887.48791      59.625839      66.213754    
   2688000   299.79591     -444082.72     -440512.65      889.40163      70.550218      66.236698    
   2689000   302.215       -444111.53     -440512.65      894.27318      52.074099      66.162158    
   2690000   304.7338      -444141.5      -440512.63      901.56778      56.877272      66.113546    
   2691000   298.98679     -444072.16     -440511.72      903.80186      58.080792      66.071709    
   2692000   298.90974     -444072.31     -440512.79      908.19717      52.783114      66.002856    
   2693000   298.158       -444063.19     -440512.62      912.68491      46.291497      65.901251    
   2694000   303.16635     -444123.16     -440512.95      918.86915      55.58799       65.848363    
   2695000   299.48369     -444078.06     -440511.71      920.65156      50.877538      65.771981    
   2696000   297.53888     -444056.12     -440512.93      925.3654       58.319315      65.73415     
   2697000   298.73466     -444070.38     -440512.94      932.17456      43.928548      65.624021    
   2698000   297.8786      -444059.31     -440512.07      936.86316      40.269426      65.496611    
   2699000   297.36861     -444053.47     -440512.3       938.46641      52.666886      65.432462    
   2700000   301.87325     -444107.88     -440513.07      942.68533      58.609155      65.398516    
   2701000   298.04976     -444062.31     -440513.04      948.39312      72.207047      65.432221    
   2702000   299.22769     -444075.34     -440512.04      955.70852      62.515897      65.417855    
   2703000   303.60218     -444127.94     -440512.54      957.787        53.751863      65.360669    
   2704000   295.75804     -444034.03     -440512.05      964.11234      54.466343      65.307526    
   2705000   297.98553     -444060.94     -440512.43      971.38381      44.348326      65.205782    
   2706000   301.15301     -444099.06     -440512.83      978.99852      56.80374       65.165192    
   2707000   301.19612     -444099.31     -440512.57      985.88609      59.482455      65.137872    
   2708000   298.93136     -444072.16     -440512.38      991.21148      56.438483      65.096248    
   2709000   301.78991     -444106.75     -440512.93      997.74484      64.990559      65.095744    
   2710000   302.22006     -444112.16     -440513.22      1002.1118      74.007516      65.13798     
   2711000   298.69392     -444069.62     -440512.68      1008.2045      73.57222       65.177764    
   2712000   299.24995     -444076.09     -440512.52      1013.0443      74.399227      65.221058    
   2713000   298.5779      -444067.81     -440512.25      1014.7908      75.792822      65.270459    
   2714000   300.06169     -444085.56     -440512.33      1016.407       72.870194      65.305806    
   2715000   297.92379     -444059.91     -440512.13      1020.1007      76.691179      65.358516    
   2716000   299.51445     -444079.91     -440513.19      1023.87        69.670435      65.378387    
   2717000   302.57365     -444115.78     -440512.63      1027.8988      67.666421      65.388882    
   2718000   301.24429     -444099.53     -440512.21      1029.3708      64.610601      65.385329    
   2719000   303.48421     -444127.81     -440513.82      1031.3245      57.396163      65.349014    
   2720000   303.23609     -444125.22     -440514.18      1033.4082      55.330986      65.303684    
   2721000   300.46583     -444090.56     -440512.51      1038.885       51.793897      65.242829    
   2722000   300.42699     -444089.59     -440512.01      1043.3021      73.275804      65.278851    
   2723000   296.88747     -444048.22     -440512.78      1045.1516      57.903866      65.245927    
   2724000   302.91689     -444119.88     -440512.64      1052.8877      56.674196      65.207831    
   2725000   302.99953     -444121.22     -440513         1056.492       68.313837      65.221574    
   2726000   303.28331     -444124.38     -440512.78      1061.598       68.971631      65.238094    
   2727000   300.39852     -444089.88     -440512.63      1069.7092      72.970343      65.272007    
   2728000   299.03233     -444073.47     -440512.49      1074.559       73.607365      65.308406    
   2729000   298.52809     -444067.09     -440512.12      1079.1918      71.339718      65.334629    
   2730000   298.32687     -444065.44     -440512.86      1083.1601      89.79367       65.440513    
   2731000   296.77791     -444047.12     -440512.99      1084.7819      84.476796      65.522566    
   2732000   302.25153     -444112.38     -440513.06      1092.9954      79.213951      65.581327    
   2733000   298.54384     -444067.53     -440512.37      1094.6176      78.989762      65.638628    
   2734000   297.07127     -444049.69     -440512.06      1101.4608      72.338502      65.667138    
   2735000   302.43064     -444114.28     -440512.84      1103.2976      70.703732      65.68848     
   2736000   300.09601     -444086.69     -440513.04      1107.7156      89.692575      65.789763    
   2737000   297.78882     -444058.19     -440512.02      1113.7198      78.060324      65.84132     
   2738000   298.40786     -444064.97     -440511.43      1118.2274      73.099495      65.871689    
   2739000   299.1929      -444075.56     -440512.67      1119.8407      75.403546      65.911405    
   2740000   297.85425     -444059.34     -440512.4       1124.5169      70.235212      65.929346    
   2741000   302.54789     -444116        -440513.16      1126.4216      61.440788      65.910798    
   2742000   300.48508     -444090.72     -440512.44      1131.5623      51.099955      65.849848    
   2743000   305.5427      -444151.44     -440512.93      1135.8202      60.529559      65.828044    
   2744000   299.37262     -444077.06     -440512.03      1137.2003      59.749092      65.803231    
   2745000   300.25897     -444088.84     -440513.26      1139.3821      63.69263       65.794652    
   2746000   299.4556      -444077.94     -440511.92      1141.4565      65.085609      65.791781    
   2747000   297.86558     -444059.47     -440512.39      1145.5859      42.673308      65.698562    
   2748000   300.32726     -444089.47     -440513.07      1153.5745      44.905621      65.615056    
   2749000   297.90994     -444059.5      -440511.89      1161.1642      57.50608       65.58262     
   2750000   301.67422     -444105.75     -440513.31      1165.2421      65.611462      65.582735    
   2751000   296.929       -444049.16     -440513.23      1171.5982      64.107898      65.576882    
   2752000   303.42927     -444125.91     -440512.57      1179.2644      68.415213      65.588101    
   2753000   301.07136     -444097.78     -440512.52      1185.199       58.727068      65.561089    
   2754000   298.81517     -444070.88     -440512.48      1187.0401      53.032141      65.511956    
   2755000   297.68375     -444057.41     -440512.49      1191.5212      43.703443      65.426766    
   2756000   301.90833     -444107.5      -440512.27      1196.4082      67.467682      65.434708    
   2757000   296.80656     -444046.72     -440512.25      1198.4401      63.825582      65.428471    
   2758000   299.12179     -444075.16     -440513.11      1202.9915      40.667468      65.332868    
   2759000   299.82221     -444082.31     -440511.93      1206.5572      63.659369      65.326432    
   2760000   300.04508     -444085.75     -440512.71      1208.1037      45.832856      65.251744    
   2761000   296.23969     -444040        -440512.28      1212.9691      40.68778       65.157988    
   2762000   300.57341     -444092        -440512.67      1217.6167      28.904799      65.020143    
   2763000   303.99629     -444132.47     -440512.38      1221.3865      28.12386       64.880385    
   2764000   297.97403     -444060.34     -440511.97      1226.3667      36.335723      64.772669    
   2765000   298.47825     -444066.53     -440512.15      1228.3654      36.163514      64.665116    
   2766000   295.948       -444036.59     -440512.35      1232.7806      44.71643       64.590402    
   2767000   308.29942     -444183.22     -440511.89      1234.7059      39.260944      64.495889    
   2768000   295.3017      -444028.94     -440512.39      1240.3878      52.082419      64.449742    
   2769000   296.14884     -444038.16     -440511.52      1245.1154      43.057438      64.370511    
   2770000   301.66148     -444105.31     -440513.03      1247.278       37.251836      64.270442    
   2771000   299.40918     -444078.06     -440512.6       1254.3824      47.218125      64.20775     
   2772000   301.99764     -444109.47     -440513.18      1256.5647      48.170538      64.149006    
   2773000   299.71926     -444081.25     -440512.09      1261.1509      57.643201      64.125262    
   2774000   298.64518     -444067.88     -440511.51      1265.5076      57.238233      64.100218    
   2775000   294.78372     -444023        -440512.62      1270.6758      70.518969      64.123474    
   2776000   299.30901     -444076.72     -440512.45      1276.1792      54.408514      64.088402    
   2777000   301.38774     -444101.28     -440512.25      1278.6784      21.171282      63.934024    
   2778000   296.84328     -444047.06     -440512.15      1285.486       43.43087       63.860536    
   2779000   298.4825      -444066.78     -440512.35      1287.0004      56.773518      63.835226    
   2780000   297.61844     -444055.84     -440511.7       1292.3585      55.378764      63.805131    
   2781000   299.46296     -444079.16     -440513.05      1297.4169      55.821729      63.776821    
   2782000   300.24872     -444088.66     -440513.19      1301.7849      60.641563      63.765743    
   2783000   297.19476     -444051.78     -440512.69      1306.4371      61.157456      63.756559    
   2784000   296.05324     -444037.44     -440511.94      1307.8474      68.794068      63.774234    
   2785000   304.95468     -444144.16     -440512.65      1309.9651      44.395855      63.706478    
   2786000   294.29575     -444016.34     -440511.77      1314.4402      43.45149       63.635903    
   2787000   301.5585      -444104.09     -440513.03      1321.642       54.436837      63.603961    
   2788000   302.27652     -444112.25     -440512.64      1326.7524      54.070614      63.570974    
   2789000   302.81493     -444119.53     -440513.51      1330.8231      53.716193      63.536992    
   2790000   299.53001     -444079.59     -440512.69      1336.4455      63.820428      63.537966    
   2791000   301.72328     -444105.5      -440512.48      1338.8407      61.347675      63.530465    
   2792000   295.25371     -444028.25     -440512.27      1340.1978      56.982989      63.508119    
   2793000   303.72499     -444129.41     -440512.55      1347.3131      58.759949      63.491969    
   2794000   297.73393     -444058.12     -440512.61      1352.2261      46.925545      63.435811    
   2795000   300.03913     -444085.84     -440512.88      1357.161       75.837121      63.477707    
   2796000   295.68659     -444033.09     -440511.96      1358.9539      74.312483      63.514188    
   2797000   299.76546     -444082.72     -440513.01      1365.7069      84.352006      63.584114    
   2798000   296.4987      -444042.53     -440511.73      1367.697       74.847918      63.621785    
   2799000   300.22204     -444087.78     -440512.64      1373.1766      78.552604      63.671555    
   2800000   296.88577     -444048.28     -440512.87      1380.8282      68.490087      63.687563    
   2801000   296.92846     -444048.25     -440512.33      1385.185       55.06548       63.659013    
   2802000   301.23945     -444099.31     -440512.05      1389.3555      66.790929      63.66935     
   2803000   296.65472     -444044.72     -440512.05      1390.983       64.63042       63.672511    
   2804000   291.04787     -443977.28     -440511.39      1392.7203      58.453944      63.655401    
   2805000   298.76118     -444070.59     -440512.85      1397.9703      74.453091      63.690688    
   2806000   301.23281     -444100.03     -440512.85      1404.3259      50.019209      63.646155    
   2807000   302.25293     -444112.47     -440513.14      1408.0229      75.706872      63.685313    
   2808000   298.70523     -444070.06     -440512.98      1412.1336      55.310403      63.65821     
   2809000   300.68868     -444093.72     -440513.02      1421.5612      51.995725      63.620589    
   2810000   297.61887     -444056.78     -440512.64      1426.1321      76.249834      63.661198    
   2811000   299.45209     -444078.22     -440512.24      1427.8505      69.725558      63.680635    
   2812000   301.09551     -444098.28     -440512.73      1430.0956      68.681504      63.696612    
   2813000   299.47417     -444078.19     -440511.95      1432.2563      72.968439      63.72614     
   2814000   295.83432     -444033.81     -440510.92      1436.64        71.180648      63.749805    
   2815000   297.20284     -444051.84     -440512.65      1443.8262      71.429666      63.774108    
   2816000   302.53503     -444116.69     -440514         1446.2816      70.614219      63.795686    
   2817000   301.12051     -444097.75     -440511.91      1454.6305      57.864854      63.777036    
   2818000   300.36813     -444089.34     -440512.46      1455.9645      68.480348      63.791779    
   2819000   297.47328     -444055.06     -440512.65      1464.2256      74.775739      63.826104    
   2820000   296.20302     -444040.31     -440513.03      1466.1512      90.615675      63.909561    
   2821000   298.74888     -444070.72     -440513.12      1475.5254      81.306987      63.96359     
   2822000   298.39747     -444065.22     -440511.8       1479.5066      70.563503      63.984023    
   2823000   302.74121     -444117.84     -440512.7       1484.6842      66.332799      63.991273    
   2824000   299.45019     -444077.97     -440512.02      1489.3212      70.672845      64.011831    
   2825000   293.80951     -444010.53     -440511.75      1493.8742      74.380438      64.043637    
   2826000   307.51105     -444175.62     -440513.68      1497.7848      59.035346      64.028321    
   2827000   298.13731     -444062.56     -440512.24      1504.6867      60.607789      64.017893    
   2828000   301.17414     -444099.91     -440513.42      1509.7564      68.883072      64.03268     
   2829000   299.80742     -444082.38     -440512.17      1512.4535      57.681027      64.013433    
   2830000   297.31632     -444052.69     -440512.14      1519.3085      77.096086      64.052958    
   2831000   304.62775     -444139.19     -440511.58      1521.638       70.983633      64.073833    
   2832000   297.60141     -444056.28     -440512.34      1525.1083      64.857505      64.076187    
   2833000   304.33878     -444137.62     -440513.46      1532.0299      65.686365      64.081007    
   2834000   301.44533     -444102.56     -440512.85      1535.8969      73.38708       64.108787    
   2835000   297.20701     -444051.16     -440511.92      1540.36        81.483788      64.160498    
   2836000   302.64506     -444116.72     -440512.72      1544.8281      82.009918      64.213464    
   2837000   303.41645     -444126.41     -440513.22      1550.5554      74.01486       64.242462    
   2838000   297.60084     -444055.47     -440511.54      1552.2691      71.487682      64.263834    
   2839000   297.23995     -444051.03     -440511.4       1554.1399      78.983249      64.307127    
   2840000   296.67387     -444044.12     -440511.23      1560.6261      68.337595      64.318946    
   2841000   300.0562      -444085.84     -440512.67      1567.365       85.816275      64.381804    
   2842000   303.85897     -444130.53     -440512.08      1569.3125      94.19095       64.468711    
   2843000   301.36216     -444100.75     -440512.03      1574.4895      71.214685      64.488321    
   2844000   299.37501     -444077.34     -440512.29      1581.3323      72.313547      64.511003    
   2845000   289.95478     -443964.06     -440511.18      1585.6442      66.895782      64.517896    
   2846000   302.68593     -444116.28     -440511.8       1591.335       54.944934      64.490308    
   2847000   304.25709     -444135.75     -440512.55      1595.6485      57.606944      64.470528    
   2848000   298.30446     -444065        -440512.69      1599.8527      62.835526      64.465843    
   2849000   296.54396     -444043.25     -440511.9       1606.1366      55.273199      64.439579    
   2850000   299.63227     -444079.88     -440511.75      1610.7846      57.684929      64.420335    
   2851000   300.15432     -444086.38     -440512.04      1612.3487      53.626888      64.389671    
   2852000   295.58413     -444031.91     -440511.99      1621.0486      60.850534      64.379645    
   2853000   301.21376     -444098.97     -440512.01      1629.398       78.265433      64.418871    
   2854000   298.52484     -444067.06     -440512.13      1635.2306      79.520432      64.46141     
   2855000   297.89525     -444059.81     -440512.38      1637.1088      76.046812      64.493954    
   2856000   299.89894     -444083.69     -440512.39      1644.3153      85.990857      64.554169    
   2857000   295.97752     -444036.28     -440511.68      1646.5198      55.983824      64.53023     
   2858000   296.26597     -444040.47     -440512.43      1651.0704      56.663272      64.508316    
   2859000   299.04704     -444072.97     -440511.82      1655.564       66.285434      64.513252    
   2860000   298.93831     -444071.84     -440511.99      1660.1463      51.37054       64.476846    
   2861000   302.65222     -444116.88     -440512.79      1666.6451      64.529032      64.47699     
   2862000   297.72775     -444057.97     -440512.53      1670.6494      63.111763      64.473229    
   2863000   292.71732     -443997.28     -440511.5       1674.5656      65.953072      64.477295    
   2864000   300.1158      -444086.41     -440512.53      1677.732       71.388377      64.496229    
   2865000   298.10977     -444062        -440512.01      1683.2971      82.544812      64.545542    
   2866000   296.05883     -444037.31     -440511.74      1688.0551      84.722063      64.600519    
   2867000   297.82681     -444057.97     -440511.35      1692.0653      66.181714      64.604816    
   2868000   299.70598     -444081.16     -440512.16      1693.9593      73.35567       64.628531    
   2869000   303.14193     -444122.22     -440512.3       1701.1273      63.206313      64.624687    
   2870000   301.02415     -444096.84     -440512.15      1706.2348      82.348934      64.672461    
   2871000   295.99584     -444037.22     -440512.4       1710.2499      96.480546      64.757967    
   2872000   301.62745     -444103.38     -440511.49      1714.0031      92.373532      64.832003    
   2873000   297.39535     -444053.56     -440512.08      1718.282       73.238971      64.854482    
   2874000   300.30581     -444087.66     -440511.51      1723.1114      66.825913      64.859739    
   2875000   296.33251     -444040.56     -440511.74      1727.9965      62.777981      64.854202    
   2876000   302.22187     -444111.25     -440512.29      1729.8272      76.579051      64.885303    
   2877000   298.11336     -444062.69     -440512.65      1733.5107      57.107674      64.864727    
   2878000   299.06448     -444073.44     -440512.08      1740.3316      87.945869      64.925627    
   2879000   299.7455      -444081.44     -440511.97      1743.8127      88.169513      64.986795    
   2880000   296.07527     -444037.53     -440511.77      1750.3582      86.939677      65.044414    
   2881000   299.53695     -444079.41     -440512.42      1754.4481      88.829985      65.10668     
   2882000   298.6987      -444068.47     -440511.46      1760.3867      85.481581      65.159879    
   2883000   303.49309     -444126.16     -440512.06      1762.4235      96.018982      65.240241    
   2884000   298.29454     -444064.44     -440512.25      1767.1094      77.612388      65.272376    
   2885000   299.97187     -444084.62     -440512.46      1771.8118      72.066218      65.289977    
   2886000   300.30061     -444088.72     -440512.64      1775.8643      94.37411       65.36513     
   2887000   300.67608     -444092.47     -440511.92      1777.4113      85.46114       65.416924    
   2888000   296.91743     -444047.38     -440511.58      1778.6872      94.339071      65.491274    
   2889000   297.65571     -444056.41     -440511.82      1783.1977      75.320137      65.516476    
   2890000   297.6003      -444056.34     -440512.42      1787.3026      76.42315       65.54437     
   2891000   304.83524     -444142.06     -440511.98      1790.8947      78.687253      65.577898    
   2892000   302.99157     -444120.31     -440512.19      1797.2945      77.608742      65.608511    
   2893000   300.59991     -444092.56     -440512.92      1798.8241      83.468391      65.65384     
   2894000   296.66527     -444044.72     -440511.93      1803.4281      85.122653      65.703128    
   2895000   298.37924     -444065.56     -440512.36      1805.7562      88.516482      65.760738    
   2896000   299.856       -444082.19     -440511.4       1809.4233      90.889556      65.824035    
   2897000   298.10148     -444061.06     -440511.17      1817.626       81.12403       65.862477    
   2898000   298.51301     -444066.88     -440512.08      1824.5931      78.470735      65.894076    
   2899000   300.35118     -444088.97     -440512.29      1829.1631      79.618571      65.928388    
   2900000   296.44075     -444041.78     -440511.67      1833.2514      98.800405      66.010363    
   2901000   295.67704     -444032.06     -440511.04      1838.1292      71.446413      66.023885    
   2902000   294.74015     -444021.25     -440511.39      1842.4781      90.34773       66.084242    
   2903000   296.61444     -444044.19     -440512         1846.6648      93.567911      66.152271    
   2904000   300.269       -444087.34     -440511.64      1856.2269      82.301559      66.192146    
   2905000   298.55489     -444066.72     -440511.43      1860.5229      87.194997      66.243877    
   2906000   300.65364     -444092.09     -440511.81      1865.5561      73.236122      66.261057    
   2907000   299.50199     -444078.5      -440511.93      1872.6103      70.575492      66.271632    
   2908000   297.69345     -444057.31     -440512.28      1877.7868      88.567864      66.326146    
   2909000   301.043       -444097.22     -440512.3       1882.991       88.814637      66.380996    
   2910000   300.89079     -444095.03     -440511.92      1891.2278      82.31079       66.419754    
   2911000   298.6566      -444067.78     -440511.28      1895.6199      68.18517       66.424039    
   2912000   298.88721     -444071.34     -440512.09      1897.6276      73.854558      66.442031    
   2913000   298.05623     -444061.03     -440511.68      1902.2821      65.996351      66.440954    
   2914000   296.31848     -444040.56     -440511.9       1909.0802      92.39556       66.503496    
   2915000   299.48214     -444077.5      -440511.17      1913.0837      84.218854      66.546081    
   2916000   301.51835     -444103.25     -440512.67      1917.0031      95.933596      66.616554    
   2917000   302.40239     -444113        -440511.89      1924.3842      88.288242      66.6684      
   2918000   299.19676     -444075.03     -440512.1       1925.856       81.429389      66.703629    
   2919000   297.66153     -444055.69     -440511.03      1930.7097      75.889162      66.7255      
   2920000   298.7781      -444069.16     -440511.21      1937.11        72.389226      66.738953    
   2921000   298.5948      -444067.19     -440511.42      1947.529       71.453529      66.750125    
   2922000   301.34484     -444100.31     -440511.8       1951.681       78.312733      66.77746     
   2923000   297.98201     -444059.94     -440511.47      1955.1884      82.795759      66.815239    
   2924000   296.5738      -444043.06     -440511.36      1959.5006      85.505695      66.859216    
   2925000   297.33861     -444052.34     -440511.54      1963.8095      94.768007      66.92473     
   2926000   305.29681     -444147.31     -440511.74      1966.1298      82.3647        66.960889    
   2927000   293.33747     -444004.59     -440511.43      1967.7188      79.278214      66.989668    
   2928000   302.97934     -444119.19     -440511.21      1969.6708      64.697581      66.984325    
   2929000   298.48268     -444065.12     -440510.69      1976.8958      70.121963      66.991622    
   2930000   298.94612     -444072        -440512.05      1983.5995      84.802776      67.032947    
   2931000   299.56661     -444079.28     -440511.94      1988.2711      72.134025      67.044755    
   2932000   301.22        -444099.12     -440512.1       1994.4323      88.481331      67.094262    
   2933000   296.25105     -444039.12     -440511.27      1999.367       84.011042      67.133241    
   2934000   296.51501     -444041.28     -440510.28      2004.1338      84.058554      67.172149    
   2935000   300.38586     -444089.19     -440512.09      2008.9439      72.839773      67.185149    
   2936000   300.56865     -444090.16     -440510.88      2016.7192      66.094048      67.182652    
   2937000   297.77576     -444057.06     -440511.05      2020.3225      68.886512      67.186542    
   2938000   304.13588     -444133.56     -440511.81      2028.357       78.867334      67.21315     
   2939000   295.04073     -444024.53     -440511.09      2034.5345      77.715137      67.237018    
   2940000   299.72758     -444080.53     -440511.27      2038.2069      68.590325      67.240087    
   2941000   297.896       -444058.75     -440511.3       2042.2637      67.951328      67.241696    
   2942000   299.60278     -444079.88     -440512.1       2043.8659      63.120328      67.232392    
   2943000   301.99871     -444107.56     -440511.26      2051.8537      79.065914      67.259044    
   2944000   300.03912     -444084.53     -440511.56      2056.3664      81.610359      67.291295    
   2945000   303.52261     -444126.16     -440511.71      2064.6361      77.674237      67.314575    
   2946000   296.72543     -444044        -440510.49      2066.5467      85.110375      67.354386    
   2947000   304.74956     -444141.03     -440511.97      2070.5275      74.305108      67.369901    
   2948000   301.14464     -444098.06     -440511.93      2079.0156      77.437059      67.392323    
   2949000   304.78214     -444141.62     -440512.18      2081.1016      83.50338       67.428125    
   2950000   300.69664     -444092.34     -440511.55      2085.9047      86.576153      67.470582    
   2951000   301.97119     -444107.78     -440511.81      2087.9334      73.262779      67.483396    
   2952000   300.22487     -444086.53     -440511.35      2095.2034      74.455833      67.498788    
   2953000   299.34499     -444075.94     -440511.24      2099.4331      61.30409       67.485143    
   2954000   297.22432     -444050.56     -440511.12      2101.2408      58.940577      67.466364    
   2955000   301.81618     -444105.66     -440511.53      2108.3952      62.839921      67.456218    
   2956000   302.12272     -444109.38     -440511.6       2116.3249      58.744938      67.437157    
   2957000   299.61053     -444078.69     -440510.82      2120.3168      61.454523      67.424094    
   2958000   299.50494     -444078.38     -440511.77      2121.9341      75.074524      67.440762    
   2959000   299.73453     -444079.69     -440510.35      2125.4851      68.648419      67.443387    
   2960000   301.31047     -444100.03     -440511.92      2132.2348      61.020374      67.429454    
   2961000   301.52163     -444101.84     -440511.22      2139.7199      57.202287      67.407317    
   2962000   296.15765     -444037.75     -440511.01      2149.4032      46.515686      67.362195    
   2963000   297.4692      -444053.81     -440511.45      2151.4883      60.939142      67.348352    
   2964000   299.19854     -444074.53     -440511.57      2156.3378      58.431249      67.329176    
   2965000   302.50516     -444113.28     -440510.95      2163.4606      75.336407      67.346359    
   2966000   300.28684     -444088.06     -440512.15      2167.4585      48.760969      67.306561    
   2967000   301.48767     -444101.59     -440511.38      2169.7173      45.131374      67.259178    
   2968000   303.90933     -444130.53     -440511.48      2176.5772      53.338658      67.229497    
   2969000   297.28667     -444051.88     -440511.69      2178.6997      67.825539      67.230765    
   2970000   302.27711     -444110.72     -440511.1       2184.0572      53.807143      67.202265    
   2971000   299.87643     -444082.38     -440511.35      2190.6967      42.370719      67.149656    
   2972000   294.8653      -444022.53     -440511.18      2192.4568      42.532016      67.09761     
   2973000   300.19183     -444086.75     -440511.96      2194.2477      59.453407      67.081483    
   2974000   299.98002     -444083.34     -440511.08      2195.9233      57.822674      67.061991    
   2975000   304.67599     -444139.12     -440510.94      2199.9628      68.601986      67.065226    
   2976000   301.61858     -444103.41     -440511.63      2207.1439      45.766066      67.020574    
   2977000   299.90329     -444082.53     -440511.18      2212.4963      46.340106      66.977309    
   2978000   302.47416     -444113.25     -440511.29      2217.0293      63.267308      66.969564    
   2979000   301.16781     -444097.53     -440511.12      2221.3417      59.924645      66.954887    
   2980000   300.07912     -444084.03     -440510.59      2225.5745      58.016484      66.936304    
   2981000   300.83949     -444093.84     -440511.35      2232.7011      68.427168      66.939397    
   2982000   299.87011     -444081.56     -440510.61      2236.9518      72.289829      66.950475    
   2983000   297.30032     -444051.06     -440510.71      2238.2189      65.687856      66.947866    
   2984000   299.82476     -444081.44     -440511.02      2241.8572      58.684314      66.930828    
   2985000   296.93814     -444046.5      -440510.46      2246.1438      73.963338      66.945298    
   2986000   304.00495     -444130.97     -440510.78      2252.188       68.419591      66.948325    
   2987000   301.25552     -444098.25     -440510.8       2255.7072      86.589058      66.988573    
   2988000   298.42067     -444064.75     -440511.06      2257.7083      68.786365      66.992249    
   2989000   301.27148     -444098.75     -440511.11      2259.3419      85.747612      67.030525    
   2990000   302.33432     -444111.28     -440510.98      2263.5176      85.528268      67.068199    
   2991000   299.91553     -444082        -440510.51      2266.0639      72.890338      67.080032    
   2992000   302.80936     -444117        -440511.04      2270.8037      81.292598      67.108861    
   2993000   303.24328     -444122.94     -440511.81      2272.533       83.380963      67.141801    
   2994000   298.01027     -444059.88     -440511.07      2274.0743      58.806404      67.124961    
   2995000   300.79534     -444093.16     -440511.18      2280.7016      63.960801      67.118582    
   2996000   298.73722     -444069.19     -440511.72      2285.0269      64.413661      67.11314     
   2997000   304.3092      -444134.91     -440511.09      2289.4765      71.491471      67.121931    
   2998000   298.76022     -444068.88     -440511.14      2293.7404      72.424901      67.132559    
   2999000   301.86769     -444105.44     -440510.7       2295.9656      64.204713      67.126703    
   3000000   302.33875     -444111.94     -440511.59      2299.7366      84.471565      67.161323    
Loop time of 12954.4 on 1 procs for 500000 steps with 3996 atoms

Performance: 1.667 ns/day, 14.394 hours/ns, 38.597 timesteps/s, 154.233 katom-step/s
99.8% CPU use with 1 MPI tasks x 1 OpenMP threads

MPI task timing breakdown:
Section |  min time  |  avg time  |  max time  |%varavg| %total
---------------------------------------------------------------
Pair    | 12337      | 12337      | 12337      |   0.0 | 95.23
Bond    | 0.17035    | 0.17035    | 0.17035    |   0.0 |  0.00
Neigh   | 17.723     | 17.723     | 17.723     |   0.0 |  0.14
Comm    | 10.923     | 10.923     | 10.923     |   0.0 |  0.08
Output  | 0.15578    | 0.15578    | 0.15578    |   0.0 |  0.00
Modify  | 560.74     | 560.74     | 560.74     |   0.0 |  4.33
Other   |            | 27.71      |            |       |  0.21

Nlocal:           3996 ave        3996 max        3996 min
Histogram: 1 0 0 0 0 0 0 0 0 0
Nghost:          16402 ave       16402 max       16402 min
Histogram: 1 0 0 0 0 0 0 0 0 0
Neighs:              0 ave           0 max           0 min
Histogram: 1 0 0 0 0 0 0 0 0 0
FullNghs:  3.16455e+06 ave 3.16455e+06 max 3.16455e+06 min
Histogram: 1 0 0 0 0 0 0 0 0 0

Total # of neighbors = 3164548
Ave neighs/atom = 791.92893
Ave special neighs/atom = 0
Neighbor list builds = 5569
Dangerous builds = 0
write_restart   kappa_restart_6
System init for write_restart ...
Total wall time: 3:35:55
