LAMMPS (22 Jul 2025)
KOKKOS mode with Kokkos version 4.6.2 is enabled
  will use up to 1 GPU(s) per node
  using 1 OpenMP thread(s) per MPI task
package kokkos
read_restart    kappa_restart_4
Reading restart file ...
  restart file = 22 Jul 2025, LAMMPS = 22 Jul 2025
  restoring atom style full/kk from restart
  orthogonal box = (0.71446759 0.71446759 0.71446759) to (36.662232 36.662232 36.662232)
  1 by 1 by 1 MPI processor grid
  pair style bamboo stores no restart info
  3996 atoms
Finding 1-2 1-3 1-4 neighbors ...
  special bond factors lj:    0        0        0       
  special bond factors coul:  0        0        0       
     0 = max # of 1-2 neighbors
     0 = max # of 1-3 neighbors
     0 = max # of 1-4 neighbors
     1 = max # of special neighbors
  special bonds CPU = 0.001 seconds
  read_restart CPU = 0.025 seconds

pair_style      bamboo 5.0 5.0 10.0 1
pair_coeff /mnt/bn/ai4s-hl/bamboo/bamboo_finetune/thermal-no-all-13-ft-03/k0r0/density_r2/k0r0-density_r2-0/checkpoints/finetune.pt H C O

neighbor        3.0 bin
neigh_modify	delay 0 check yes

compute         ke all ke/atom
variable        kB equal 0.0019872041       # Boltzmann const. (kcal/mol·K)
variable        temp atom c_ke/(1.5*${kB})  # per-atom temperature (K)
variable        temp atom c_ke/(1.5*0.0019872041)  

fix             1 all nve

compute         layers all chunk/atom bin/1d z lower 0.05 units reduced
fix             2 all ave/chunk 10 100 1000 layers v_temp file profile5.mp
fix             3 all thermal/conductivity 500 z 20

variable        tdiff equal f_2[11][3]-f_2[1][3]
thermo_style    custom step temp epair etotal f_3 v_tdiff
thermo_modify   colname f_3 E_delta colname v_tdiff dTemp_step

fix             ave all ave/time 1 1 1000 v_tdiff ave running
thermo_style    custom step temp epair etotal f_3 v_tdiff f_ave
WARNING: New thermo_style command, previous thermo_modify settings will be lost (src/code.byted.org/data/lammps_bamboo/src/output.cpp:912)
thermo_modify   colname f_3 E_delta colname v_tdiff dTemp_step colname f_ave dTemp

thermo          1000
run             500000
Unused restart file peratom fix info:
  fix style: STORE/ATOM, fix ID: layers_COMPUTE_STORE
Neighbor list info ...
  update: every = 1 steps, delay = 0 steps, check = yes
  max neighbors/atom: 2000, page size: 100000
  master list distance cutoff = 13
  ghost atom cutoff = 13
  binsize = 13, bins = 3 3 3
  1 neighbor lists, perpetual/occasional/extra = 1 0 0
  (1) pair bamboo/kk, perpetual
      attributes: full, newton off, kokkos_device
      pair build: full/bin/kk/device
      stencil: full/bin/3d
      bin: kk/device
WARNING: Fix STORE/ATOM not compatible with sending data in Kokkos communication (src/code.byted.org/data/lammps_bamboo/src/KOKKOS/comm_kokkos.cpp:766)
WARNING: Fix with atom-based arrays not compatible with sending data in Kokkos communication, switching to classic exchange/border communication (src/code.byted.org/data/lammps_bamboo/src/KOKKOS/comm_kokkos.cpp:779)
WARNING: Fix STORE/ATOM not compatible with Kokkos sorting on device (src/code.byted.org/data/lammps_bamboo/src/KOKKOS/atom_kokkos.cpp:212)
WARNING: Fix with atom-based arrays not compatible with Kokkos sorting on device, switching to classic host sorting (src/code.byted.org/data/lammps_bamboo/src/KOKKOS/atom_kokkos.cpp:218)
Per MPI rank memory allocation (min/avg/max) = 8.639 | 8.639 | 8.639 Mbytes
   Step          Temp          E_pair         TotEng        E_delta       dTemp_step       dTemp     
   2000000   298.17739     -444064.47     -440513.67      0              0              0            
   2001000   298.03797     -444064.12     -440514.99      1.3738689      78.189385      39.094693    
   2002000   298.25944     -444066.38     -440514.6       5.9390417      61.943778      46.711055    
   2003000   299.21175     -444076.81     -440513.7       13.111903      61.544641      50.419451    
   2004000   302.25561     -444113.62     -440514.26      18.00779       63.390465      53.013654    
   2005000   300.22768     -444088.09     -440512.88      23.825207      58.838384      53.984442    
   2006000   300.04227     -444086.69     -440513.68      29.78219       61.71289       55.088506    
   2007000   296.58432     -444045.34     -440513.52      34.784138      50.974071      54.574202    
   2008000   301.26828     -444100.28     -440512.68      38.943105      47.9492        53.83809     
   2009000   299.29383     -444077.19     -440513.1       40.884421      62.422888      54.69657     
   2010000   299.78664     -444084.56     -440514.6       47.221717      78.327554      56.844841    
   2011000   299.30461     -444078.75     -440514.53      50.877739      61.936656      57.269159    
   2012000   301.45607     -444104.41     -440514.57      52.742256      45.544703      56.367278    
   2013000   301.425       -444103.62     -440514.15      58.671531      52.742243      56.108347    
   2014000   301.11771     -444100        -440514.19      62.804764      75.98765       57.433634    
   2015000   299.73892     -444083.41     -440514.01      72.130731      77.682989      58.699219    
   2016000   300.01061     -444086.19     -440513.56      74.100282      64.368086      59.032681    
   2017000   299.04734     -444075.78     -440514.63      78.920916      53.214592      58.709454    
   2018000   304.09637     -444135.41     -440514.12      80.881334      65.731429      59.079032    
   2019000   300.84218     -444094.97     -440512.44      84.645661      64.817408      59.365951    
   2020000   299.38788     -444078.25     -440513.04      86.146155      61.671727      59.475749    
   2021000   300.50838     -444092.22     -440513.66      93.223731      53.69968       59.213201    
   2022000   298.8017      -444072.41     -440514.18      96.953732      53.238746      58.953442    
   2023000   304.02248     -444135.12     -440514.72      103.67194      59.921913      58.993795    
   2024000   300.09908     -444087.34     -440513.66      111.76211      63.311344      59.166497    
   2025000   300.2178      -444089.84     -440514.75      116.16427      61.6296        59.261232    
   2026000   304.71912     -444142.91     -440514.21      122.97647      75.06629       59.846604    
   2027000   307.28836     -444173.69     -440514.39      124.9741       67.059141      60.104195    
   2028000   300.77055     -444095.34     -440513.67      126.54648      68.747025      60.402223    
   2029000   301.90089     -444108.91     -440513.77      130.684        52.90958       60.152469    
   2030000   299.73244     -444083.41     -440514.09      137.83231      54.622532      59.974084    
   2031000   297.88135     -444061.53     -440514.26      142.90631      57.915477      59.909752    
   2032000   301.12991     -444100        -440514.04      151.25978      56.764939      59.814455    
   2033000   299.2475      -444077.34     -440513.8       157.10976      53.636423      59.632748    
   2034000   299.07606     -444074.84     -440513.35      164.96088      53.798308      59.46605     
   2035000   300.49534     -444093        -440514.6       166.72544      44.763123      59.057635    
   2036000   305.06694     -444147.69     -440514.85      172.5065       46.052558      58.706146    
   2037000   299.72632     -444083.47     -440514.23      180.8057       61.452451      58.778418    
   2038000   301.18052     -444100.81     -440514.25      189.1383       66.224132      58.969333    
   2039000   303.96483     -444134.28     -440514.57      193.08979      69.265547      59.226739    
   2040000   298.83431     -444073.09     -440514.47      200.29036      69.912068      59.487357    
   2041000   295.46178     -444032.53     -440514.07      204.24603      80.946687      59.998293    
   2042000   298.22643     -444064.69     -440513.31      208.39722      82.495778      60.52149     
   2043000   297.98592     -444061.84     -440513.33      215.59624      92.666118      61.25205     
   2044000   298.73861     -444071.34     -440513.86      223.077        86.519117      61.81354     
   2045000   300.06226     -444086.72     -440513.48      227.73594      90.241604      62.431542    
   2046000   296.08706     -444039.88     -440513.97      232.99146      87.598842      62.967016    
   2047000   296.46294     -444044.16     -440513.78      237.92462      99.182193      63.721499    
   2048000   294.88751     -444025.38     -440513.76      244.54158      93.024024      64.31951     
   2049000   299.93393     -444085.88     -440514.16      251.12628      95.657091      64.946261    
   2050000   297.54841     -444057.12     -440513.82      252.7123       88.55335       65.409146    
   2051000   302.24303     -444113.5      -440514.29      256.64809      77.813931      65.647699    
   2052000   298.93997     -444073.53     -440513.65      263.08251      84.910507      66.011148    
   2053000   306.20821     -444161.28     -440514.85      270.68897      60.04549       65.900673    
   2054000   295.26441     -444029.91     -440513.8       279.33849      57.542189      65.748701    
   2055000   298.90458     -444073.41     -440513.95      284.10446      47.010493      65.41409     
   2056000   302.78628     -444120.34     -440514.66      289.22334      55.611915      65.242122    
   2057000   306.45882     -444163.34     -440513.93      291.2424       57.029922      65.100532    
   2058000   298.19698     -444064.81     -440513.78      296.2241       54.374287      64.918731    
   2059000   300.31307     -444089.91     -440513.68      299.8156       65.027192      64.920539    
   2060000   295.87822     -444036.78     -440513.36      301.46016      43.568245      64.570502    
   2061000   301.80765     -444108.16     -440514.13      306.3782       58.849266      64.478224    
   2062000   300.40615     -444090.91     -440513.57      308.3156       65.499435      64.494433    
   2063000   300.21508     -444088.91     -440513.84      310.17859      61.029963      64.440301    
   2064000   299.31308     -444077.81     -440513.49      316.39339      55.646088      64.305005    
   2065000   301.90335     -444109.47     -440514.3       320.44567      51.305885      64.108049    
   2066000   297.36764     -444055.53     -440514.38      325.13186      52.249651      63.931058    
   2067000   299.47859     -444079.53     -440513.24      332.12991      49.720618      63.722081    
   2068000   297.72732     -444059.09     -440513.66      333.63697      47.790451      63.491188    
   2069000   301.64805     -444105.34     -440513.22      338.38647      52.169519      63.32945     
   2070000   302.79945     -444119.59     -440513.76      345.2022       52.533756      63.177398    
   2071000   299.65609     -444082.22     -440513.81      349.70381      51.217463      63.011287    
   2072000   296.47908     -444044.31     -440513.74      351.2588       60.592858      62.978158    
   2073000   301.63673     -444106.34     -440514.35      352.84631      69.356222      63.064348    
   2074000   300.93742     -444097.78     -440514.12      354.47571      63.702375      63.072855    
   2075000   298.41757     -444067.5      -440513.84      355.97174      76.98598       63.255923    
   2076000   291.9828      -443990.75     -440513.72      357.96757      68.179965      63.319871    
   2077000   299.90504     -444085.19     -440513.82      361.93925      58.810844      63.262063    
   2078000   301.55052     -444105.06     -440514.1       366.84745      60.991875      63.233327    
   2079000   302.50782     -444116.97     -440514.6       369.40215      72.736728      63.352119    
   2080000   305.80098     -444156.06     -440514.48      376.59243      68.633685      63.417324    
   2081000   299.92521     -444085.53     -440513.92      383.1858       67.865851      63.471574    
   2082000   302.65196     -444118.38     -440514.29      384.72738      65.326516      63.493923    
   2083000   298.32293     -444066.38     -440513.85      391.08462      62.715282      63.484653    
   2084000   298.78029     -444071.56     -440513.59      395.20751      65.009689      63.502595    
   2085000   301.26227     -444101.69     -440514.16      399.495        51.532382      63.363406    
   2086000   293.65436     -444011.56     -440514.63      401.61976      54.179382      63.257843    
   2087000   296.95848     -444049.84     -440513.56      410.04851      51.621061      63.125607    
   2088000   297.00346     -444050.03     -440513.21      413.94711      61.244109      63.104466    
   2089000   298.18499     -444064.59     -440513.71      418.84006      56.212813      63.027892    
   2090000   298.69966     -444070.47     -440513.45      420.36835      54.963297      62.93927     
   2091000   298.26069     -444066.09     -440514.31      427.79627      53.641196      62.838204    
   2092000   299.9731      -444086        -440513.82      435.62014      41.676213      62.610656    
   2093000   304.31878     -444139.19     -440515.26      436.80124      56.052455      62.540888    
   2094000   295.5256      -444032.53     -440513.31      441.17916      54.079444      62.45182     
   2095000   299.57106     -444080.94     -440513.54      449.41489      53.338349      62.356888    
   2096000   300.19701     -444088.06     -440513.22      451.27683      51.801395      62.248069    
   2097000   298.67031     -444069.72     -440513.05      456.03212      39.656916      62.017547    
   2098000   301.87995     -444109.03     -440514.14      458.06254      54.628403      61.942909    
   2099000   298.70629     -444070.91     -440513.81      462.20343      48.892826      61.812408    
   2100000   301.40999     -444103.34     -440514.05      467.97851      59.7831        61.792316    
   2101000   293.12113     -444004.47     -440513.88      474.83634      67.651812      61.849762    
   2102000   297.99519     -444062.19     -440513.56      478.66029      46.52835       61.70101     
   2103000   297.8543      -444060.75     -440513.8       487.33334      33.996465      61.43462     
   2104000   295.82803     -444037.38     -440514.56      496.02836      40.961681      61.23964     
   2105000   300.68491     -444095.81     -440515.16      497.74596      51.343393      61.146279    
   2106000   295.0684      -444027.53     -440513.76      503.43979      45.135224      60.996643    
   2107000   293.08663     -444002.66     -440512.48      508.57261      36.707041      60.771739    
   2108000   301.01877     -444098.5      -440513.87      512.04523      41.253736      60.592675    
   2109000   297.42494     -444056.09     -440514.26      514.37171      44.952778      60.450494    
   2110000   297.56172     -444057.81     -440514.35      519.09976      30.963146      60.184843    
   2111000   300.81329     -444095.91     -440513.72      520.96328      44.799841      60.047476    
   2112000   306.2351      -444161.28     -440514.53      528.96232      51.78074       59.97432     
   2113000   300.38397     -444091.62     -440514.55      533.39485      39.730939      59.796746    
   2114000   299.05853     -444075.44     -440514.15      542.60455      47.623656      59.690893    
   2115000   299.15728     -444077        -440514.53      546.54574      43.149097      59.548291    
   2116000   302.12617     -444112.72     -440514.9       551.38898      57.172391      59.527985    
   2117000   293.92798     -444013.91     -440513.71      555.3223       50.222637      59.449126    
   2118000   305.318       -444149.97     -440514.14      557.95818      53.605806      59.400022    
   2119000   295.36412     -444031.06     -440513.77      559.97153      52.889034      59.345764    
   2120000   303.55823     -444129        -440514.13      564.62584      60.027465      59.351398    
   2121000   295.60798     -444033.88     -440513.68      569.13223      71.65079       59.452212    
   2122000   297.78204     -444060.53     -440514.44      571.03387      61.190859      59.466348    
   2123000   293.80664     -444012.75     -440514         575.18091      50.562793      59.394545    
   2124000   297.28044     -444053.62     -440513.51      579.29987      46.867854      59.294331    
   2125000   301.65409     -444106.38     -440514.18      583.7294       70.032757      59.379557    
   2126000   301.89694     -444108.88     -440513.78      588.48526      50.471505      59.309415    
   2127000   296.00493     -444038.91     -440513.98      596.03901      65.528567      59.358002    
   2128000   293.55715     -444008.91     -440513.13      600.10943      61.413672      59.373937    
   2129000   299.63456     -444082.53     -440514.38      606.65862      68.971783      59.447767    
   2130000   300.56129     -444092.72     -440513.53      610.25941      66.503088      59.501624    
   2131000   297.63992     -444058.31     -440513.92      617.26965      70.400133      59.584189    
   2132000   295.96538     -444038.12     -440513.67      625.65131      82.254628      59.754643    
   2133000   302.51747     -444116.66     -440514.18      632.95248      75.985681      59.87577     
   2134000   300.70961     -444094.88     -440513.92      638.74126      81.641012      60.036994    
   2135000   304.50593     -444139.66     -440513.5       646.11876      81.779069      60.196863    
   2136000   297.93281     -444061.84     -440513.96      649.79865      92.297079      60.431171    
   2137000   302.46772     -444116.25     -440514.36      656.31256      69.74833       60.498686    
   2138000   300.50959     -444092.44     -440513.87      662.50892      87.3572        60.691913    
   2139000   299.79205     -444083.84     -440513.82      664.20457      72.593463      60.776924    
   2140000   299.79674     -444084.94     -440514.86      672.33272      62.31738       60.787849    
   2141000   301.16375     -444101.22     -440514.86      677.08116      77.23601       60.903682    
   2142000   298.41579     -444067.28     -440513.65      681.815        75.218292      61.003784    
   2143000   297.50158     -444056.72     -440513.97      685.91627      76.112718      61.108707    
   2144000   295.82302     -444036.25     -440513.49      688.05813      53.084288      61.053366    
   2145000   300.78069     -444095.72     -440513.92      692.4039       51.587284      60.98853     
   2146000   302.51648     -444116.66     -440514.19      696.62467      47.733037      60.898356    
   2147000   301.69672     -444105.75     -440513.04      700.62119      60.600593      60.896345    
   2148000   301.71783     -444107.22     -440514.26      702.61866      52.256198      60.838357    
   2149000   299.03514     -444074.44     -440513.43      707.70808      50.838002      60.771688    
   2150000   300.56935     -444092.56     -440513.28      712.82254      52.005543      60.713634    
   2151000   298.49699     -444067.38     -440512.77      718.56322      25.826004      60.48411     
   2152000   294.55377     -444020.75     -440513.1       723.97269      52.46716       60.431712    
   2153000   299.38962     -444078.59     -440513.36      731.64847      51.398508      60.373055    
   2154000   299.35365     -444078.88     -440514.07      736.12976      43.296227      60.262882    
   2155000   300.01793     -444086.06     -440513.35      738.4588       56.70262       60.240059    
   2156000   297.88809     -444061.06     -440513.71      746.41831      61.676244      60.249207    
   2157000   298.83292     -444072.56     -440513.96      751.59329      47.12723       60.166157    
   2158000   298.78945     -444071.69     -440513.6       753.51225      44.248059      60.066043    
   2159000   296.56629     -444045.72     -440514.11      755.78762      55.15149       60.035327    
   2160000   300.6788      -444094.78     -440514.2       761.9105       65.082928      60.066678    
   2161000   298.08156     -444063.28     -440513.63      767.99985      62.769294      60.083361    
   2162000   293.99397     -444013.56     -440512.58      771.77679      63.690269      60.105489    
   2163000   299.811       -444084.22     -440513.97      778.94995      65.19327       60.136512    
   2164000   299.75151     -444083.31     -440513.77      780.58854      58.205458      60.124809    
   2165000   294.47431     -444020.06     -440513.36      785.83766      44.83719       60.032715    
   2166000   300.67607     -444094.56     -440514.01      787.58598      65.548803      60.065745    
   2167000   305.8324      -444156.69     -440514.73      792.79221      60.27774       60.067007    
   2168000   297.44971     -444056.03     -440513.9       799.61821      66.144805      60.102971    
   2169000   299.88854     -444084.72     -440513.55      801.63888      53.83047       60.066074    
   2170000   301.54611     -444105.09     -440514.18      805.45521      57.30964       60.049954    
   2171000   298.91764     -444073.53     -440513.92      807.33675      51.795803      60.001965    
   2172000   304.38093     -444138.94     -440514.27      812.27243      43.284917      59.905335    
   2173000   299.02744     -444074.88     -440513.96      816.32246      47.999109      59.836908    
   2174000   302.52475     -444116.94     -440514.37      818.41372      52.719084      59.796235    
   2175000   302.43221     -444114.75     -440513.29      825.80769      46.68485       59.721738    
   2176000   301.40404     -444102.97     -440513.75      830.33812      58.106518      59.712613    
   2177000   294.59263     -444021.03     -440512.92      835.69487      52.710895      59.673277    
   2178000   299.43733     -444079.44     -440513.64      837.75968      57.429935      59.660744    
   2179000   302.99582     -444122.12     -440513.95      842.16896      70.651948      59.721807    
   2180000   301.4537      -444103.75     -440513.94      846.94282      75.847143      59.810897    
   2181000   299.50841     -444079.81     -440513.17      852.38185      62.980733      59.828314    
   2182000   298.23899     -444065.06     -440513.53      860.98751      62.534763      59.843103    
   2183000   300.81011     -444096.69     -440514.54      865.70665      63.511094      59.863038    
   2184000   299.4929      -444080.72     -440514.26      869.66305      74.076352      59.939866    
   2185000   301.68131     -444105.66     -440513.13      874.35276      76.641486      60.02966     
   2186000   301.74036     -444107.22     -440513.99      881.81236      71.381326      60.090364    
   2187000   301.24872     -444101.22     -440513.85      886.87524      53.019956      60.052756    
   2188000   297.11602     -444051.72     -440513.56      894.43151      41.586133      59.955049    
   2189000   296.85373     -444047.81     -440512.78      898.79311      42.583185      59.863618    
   2190000   303.0468      -444121.34     -440512.56      900.76235      55.219199      59.839301    
   2191000   299.28454     -444077.12     -440513.14      905.00533      64.971147      59.86603     
   2192000   299.6245      -444080.91     -440512.88      909.67908      74.572226      59.942228    
   2193000   299.461       -444079.31     -440513.23      914.80546      85.937019      60.076221    
   2194000   298.71964     -444070.75     -440513.5       922.74944      81.946047      60.188374    
   2195000   301.42607     -444102.44     -440512.95      924.416        88.851041      60.334613    
   2196000   298.92195     -444072.72     -440513.06      926.40226      75.205393      60.410099    
   2197000   299.04025     -444074.53     -440513.46      931.03144      69.672222      60.456877    
   2198000   304.128       -444134.88     -440513.22      935.73554      45.937228      60.383914    
   2199000   294.39367     -444019.19     -440513.45      940.25573      59.440611      60.379198    
   2200000   301.50216     -444103.78     -440513.39      944.11322      64.237194      60.398392    
   2201000   298.6963      -444070.44     -440513.46      950.66323      63.562886      60.414057    
   2202000   300.97121     -444097.56     -440513.5       955.1032       60.09633       60.412492    
   2203000   297.21909     -444052.28     -440512.9       956.99746      54.86542       60.385301    
   2204000   295.60406     -444032.94     -440512.78      961.59342      65.02612       60.407939    
   2205000   306.24414     -444161.12     -440514.27      966.78037      68.607926      60.447745    
   2206000   300.52098     -444091.84     -440513.14      971.96343      68.625479      60.487251    
   2207000   298.25976     -444064.75     -440512.97      973.44677      61.378428      60.491535    
   2208000   301.2602      -444100.81     -440513.3       981.69572      76.236265      60.566869    
   2209000   302.62218     -444117.56     -440513.84      983.82261      65.888744      60.592211    
   2210000   298.16368     -444063.88     -440513.24      985.54522      79.443483      60.681553    
   2211000   295.68045     -444034.41     -440513.34      991.20099      66.227384      60.707713    
   2212000   304.01269     -444133.72     -440513.43      996.67579      64.354877      60.724836    
   2213000   300.20949     -444088.5      -440513.5       1005.1316      69.001611      60.763512    
   2214000   300.09223     -444087        -440513.4       1012.1034      61.389799      60.766425    
   2215000   300.31887     -444089        -440512.7       1014.1475      51.20742       60.722171    
   2216000   298.5465      -444068.84     -440513.65      1020.5009      56.674127      60.703516    
   2217000   303.82592     -444131.44     -440513.38      1025.0003      69.709954      60.74483     
   2218000   303.81823     -444131.94     -440513.97      1026.6856      50.076918      60.696118    
   2219000   298.62076     -444069.09     -440513.02      1031.4643      50.182764      60.64833     
   2220000   297.93588     -444061        -440513.08      1033.2806      53.394363      60.615507    
   2221000   301.4395      -444103.72     -440514.08      1038.5436      56.203232      60.595632    
   2222000   298.42257     -444067.28     -440513.56      1046.0001      65.40475       60.617197    
   2223000   296.62955     -444046.47     -440514.1       1050.4076      61.394633      60.620668    
   2224000   301.22977     -444100.84     -440513.7       1054.9132      65.269426      60.641329    
   2225000   302.65307     -444118.41     -440514.31      1060.9379      65.235505      60.661657    
   2226000   305.97371     -444157.41     -440513.77      1062.4905      59.339652      60.655833    
   2227000   298.18736     -444063.62     -440512.71      1064.433       61.250327      60.658441    
   2228000   299.86377     -444084.91     -440514.03      1065.9978      57.549474      60.644865    
   2229000   300.42021     -444091.47     -440513.96      1069.9905      63.403946      60.656861    
   2230000   300.81555     -444095.41     -440513.19      1074.2997      57.55734       60.643443    
   2231000   299.11737     -444076.97     -440514.98      1078.5363      55.046809      60.619319    
   2232000   296.25407     -444041.22     -440513.33      1083.0081      69.320076      60.656662    
   2233000   296.42562     -444043.38     -440513.44      1091.0938      62.805473      60.665845    
   2234000   299.43552     -444079.56     -440513.78      1096.7357      71.333523      60.711239    
   2235000   301.80451     -444107.53     -440513.54      1102.729       60.087145      60.708595    
   2236000   297.694       -444058.28     -440513.24      1112.0523      68.19449       60.740181    
   2237000   299.01822     -444074.75     -440513.94      1113.9957      53.091496      60.708043    
   2238000   297.05765     -444050.69     -440513.23      1120.1107      54.180483      60.680731    
   2239000   307.45442     -444175.03     -440513.76      1121.7128      71.340817      60.725148    
   2240000   300.82883     -444096.56     -440514.19      1126.6683      52.811418      60.692311    
   2241000   303.03972     -444122.34     -440513.64      1131.9399      60.88008       60.693087    
   2242000   298.84431     -444071.91     -440513.17      1140.3658      56.690187      60.676614    
   2243000   297.22469     -444052.97     -440513.52      1145.5665      59.129894      60.670275    
   2244000   297.93525     -444061.84     -440513.93      1147.1708      54.854789      60.646539    
   2245000   296.92779     -444050.38     -440514.46      1152.096       48.524034      60.59726     
   2246000   298.03314     -444062        -440512.92      1156.1435      51.405993      60.560049    
   2247000   294.8862      -444023.72     -440512.11      1161.5368      49.42074       60.515132    
   2248000   298.84832     -444071.5      -440512.71      1167.6446      39.879656      60.432259    
   2249000   299.59068     -444081.56     -440513.94      1175.2182      47.825605      60.381832    
   2250000   304.30171     -444137.66     -440513.93      1180.6124      55.867195      60.363845    
   2251000   300.46281     -444091.09     -440513.08      1187.4948      48.218501      60.31565     
   2252000   299.69574     -444082.5      -440513.62      1189.232       66.882029      60.341604    
   2253000   294.61424     -444021.41     -440513.04      1193.4133      53.242744      60.313655    
   2254000   300.25103     -444089.62     -440514.13      1201.9227      54.425813      60.290566    
   2255000   302.77302     -444119.56     -440514.04      1206.6674      51.846857      60.257583    
   2256000   298.56559     -444069.28     -440513.86      1213.4195      56.44021       60.242729    
   2257000   300.74056     -444095.22     -440513.9       1217.5732      48.296985      60.196428    
   2258000   298.71256     -444070.5      -440513.33      1223.5274      52.733591      60.167614    
   2259000   297.4199      -444055        -440513.22      1228.859       49.812111      60.127785    
   2260000   306.36734     -444163        -440514.67      1233.0928      51.131441      60.093316    
   2261000   299.52391     -444080.41     -440513.57      1240.2867      62.427492      60.102225    
   2262000   295.02608     -444026.5      -440513.23      1244.6287      68.298416      60.133389    
   2263000   303.22023     -444125.06     -440514.21      1249.1404      71.133013      60.175055    
   2264000   300.97302     -444097.44     -440513.35      1255.1875      77.893506      60.241917    
   2265000   300.60126     -444093.66     -440514         1256.7977      96.026517      60.376445    
   2266000   300.99661     -444097.34     -440512.97      1258.708       78.993599      60.446172    
   2267000   298.87535     -444072.69     -440513.58      1260.4357      76.97731       60.507856    
   2268000   295.97877     -444038.06     -440513.45      1265.0656      72.621027      60.552886    
   2269000   299.06955     -444074.59     -440513.17      1266.9125      91.733871      60.668371    
   2270000   299.2253      -444076.47     -440513.19      1268.4689      84.290569      60.755538    
   2271000   303.40581     -444127.09     -440514.04      1270.3826      75.775895      60.81076     
   2272000   298.27238     -444066.25     -440514.32      1275.5633      87.298875      60.907786    
   2273000   303.85167     -444131.75     -440513.38      1280.4263      69.18068       60.937979    
   2274000   305.74354     -444154        -440513.1       1282.6271      58.735774      60.929971    
   2275000   297.71004     -444058.72     -440513.49      1287.4138      71.392417      60.967878    
   2276000   299.74099     -444083.41     -440513.99      1291.7973      80.095123      61.03693     
   2277000   299.34123     -444077.78     -440513.13      1296.4415      63.114444      61.044403    
   2278000   296.2674      -444041.66     -440513.6       1302.1589      69.417692      61.074415    
   2279000   296.81037     -444047.72     -440513.2       1308.9489      73.984665      61.120523    
   2280000   302.58322     -444116.53     -440513.27      1310.8426      71.592249      61.157789    
   2281000   299.20015     -444075.75     -440512.77      1311.9864      78.096733      61.217856    
   2282000   297.81672     -444060.03     -440513.53      1313.6881      82.214992      61.292051    
   2283000   298.66403     -444070.34     -440513.75      1320.4916      67.967885      61.315557    
   2284000   300.19011     -444087.28     -440512.52      1327.1625      70.83599       61.348962    
   2285000   296.85923     -444047.34     -440512.24      1331.5686      62.376043      61.352553    
   2286000   302.78803     -444119.25     -440513.55      1335.9864      53.121055      61.323872    
   2287000   294.70659     -444022.84     -440513.38      1338.2955      45.501396      61.268933    
   2288000   299.21163     -444077.12     -440514.01      1343.4042      48.857525      61.225987    
   2289000   300.94638     -444097.09     -440513.32      1345.485       58.712811      61.217321    
   2290000   301.26029     -444101.09     -440513.58      1350.2058      43.143456      61.155211    
   2291000   300.546       -444091.59     -440512.59      1356.2241      61.075392      61.154938    
   2292000   298.52568     -444068.31     -440513.37      1363.9044      54.653375      61.132748    
   2293000   296.26076     -444040.53     -440512.56      1368.8126      46.294321      61.082277    
   2294000   298.29153     -444065.53     -440513.38      1372.8933      54.061851      61.058479    
   2295000   299.52782     -444080.94     -440514.06      1377.1854      46.656637      61.009825    
   2296000   303.31209     -444125.66     -440513.71      1382.5586      65.055302      61.023446    
   2297000   302.10569     -444111.47     -440513.89      1389.1631      58.582896      61.015256    
   2298000   297.24503     -444052.72     -440513.03      1394.7265      58.02464       61.005254    
   2299000   299.02902     -444074.81     -440513.87      1398.5487      75.74412       61.054383    
   2300000   303.51758     -444128.44     -440514.05      1400.3613      79.084814      61.114285    
   2301000   299.25641     -444076.84     -440513.2       1404.2902      61.389234      61.115196    
   2302000   297.11672     -444051.22     -440513.05      1409.3415      61.625222      61.116879    
   2303000   299.17305     -444075.34     -440512.69      1417.0621      65.298116      61.130633    
   2304000   298.66787     -444069        -440512.36      1421.8386      64.339858      61.141155    
   2305000   295.12264     -444028.09     -440513.67      1425.5351      59.369088      61.135364    
   2306000   301.48272     -444103.19     -440513.03      1432.6851      49.320016      61.096877    
   2307000   301.05348     -444097.88     -440512.83      1436.5966      73.583492      61.137418    
   2308000   303.37328     -444125.91     -440513.24      1438.6177      57.000522      61.12403     
   2309000   301.15694     -444099.44     -440513.16      1444.3439      55.198022      61.104914    
   2310000   298.64519     -444068.78     -440512.41      1448.7726      56.583741      61.090377    
   2311000   298.92761     -444073.38     -440513.64      1453.7681      49.203037      61.052276    
   2312000   295.04911     -444025.94     -440512.39      1458.7233      68.21935       61.075174    
   2313000   302.83708     -444120.5      -440514.21      1460.3762      53.758789      61.051874    
   2314000   298.91157     -444073.12     -440513.59      1462.6401      48.293658      61.011371    
   2315000   295.66377     -444034.09     -440513.23      1466.6031      46.64984       60.965923    
   2316000   295.98787     -444037.62     -440512.9       1468.433       50.590561      60.933194    
   2317000   295.46345     -444031.22     -440512.74      1474.9807      50.425179      60.90015     
   2318000   296.51777     -444043.47     -440512.44      1477.3944      54.396481      60.879762    
   2319000   298.27058     -444065.12     -440513.22      1482.2236      56.71467       60.866746    
   2320000   301.48798     -444101.91     -440511.69      1486.8607      50.770143      60.835292    
   2321000   299.99394     -444084.59     -440512.17      1493.7489      64.605553      60.847001    
   2322000   301.08705     -444099.31     -440513.87      1498.1961      68.604603      60.871019    
   2323000   298.69821     -444069.91     -440512.91      1503.3241      62.946672      60.877425    
   2324000   300.23477     -444087.81     -440512.52      1505.6242      66.282518      60.894056    
   2325000   304.96238     -444144.44     -440512.84      1510.3736      57.121336      60.882483    
   2326000   305.05799     -444146.66     -440513.92      1516.365       58.442926      60.875023    
   2327000   299.66762     -444080.66     -440512.11      1520.9219      52.727258      60.850182    
   2328000   296.32991     -444041.91     -440513.11      1524.8819      54.513173      60.830921    
   2329000   302.48466     -444115.94     -440513.85      1526.7707      42.120557      60.774223    
   2330000   296.99939     -444050.25     -440513.48      1531.0669      50.435191      60.742987    
   2331000   295.10524     -444027.03     -440512.82      1535.8981      47.110207      60.701924    
   2332000   298.1275      -444063.38     -440513.17      1537.6533      36.815731      60.630194    
   2333000   298.79442     -444070.41     -440512.26      1542.221       47.337368      60.590395    
   2334000   297.13395     -444051.34     -440512.97      1549.2435      46.231287      60.547532    
   2335000   301.46706     -444103.5      -440513.53      1552.5924      55.617135      60.532858    
   2336000   302.44049     -444114.62     -440513.06      1560.5417      52.489271      60.50899     
   2337000   296.24992     -444039.53     -440511.69      1568.7592      52.52394       60.485366    
   2338000   296.45606     -444043.22     -440512.92      1574.1797      51.16583       60.457874    
   2339000   302.52558     -444116.28     -440513.7       1578.5958      56.17631       60.445282    
   2340000   297.96116     -444061.09     -440512.87      1583.148       63.730405      60.454915    
   2341000   303.97091     -444133.53     -440513.74      1589.6156      45.674867      60.411699    
   2342000   301.19838     -444099.84     -440513.07      1594.2275      57.529063      60.403295    
   2343000   302.88172     -444119.69     -440512.87      1597.5663      60.235118      60.402806    
   2344000   297.69497     -444058.5      -440513.45      1602.6629      48.033321      60.366952    
   2345000   300.73469     -444094.22     -440512.97      1606.6738      53.043138      60.345785    
   2346000   305.1757      -444148.16     -440514.02      1613.4396      59.191553      60.342459    
   2347000   296.5815      -444045.28     -440513.49      1617.8543      53.303571      60.322232    
   2348000   301.79363     -444107.84     -440513.98      1624.6078      65.064444      60.33582     
   2349000   304.1321      -444133.69     -440511.98      1629.1862      56.249131      60.324144    
   2350000   300.71938     -444094.09     -440513.03      1636.7283      59.625677      60.322154    
   2351000   301.68722     -444105.31     -440512.72      1638.6049      65.008174      60.335466    
   2352000   300.78238     -444094.19     -440512.37      1640.4026      54.891999      60.320046    
   2353000   299.96552     -444084.62     -440512.53      1646.1443      54.394084      60.303306    
   2354000   298.64529     -444069.12     -440512.76      1650.3182      43.659079      60.256421    
   2355000   298.65634     -444069.59     -440513.09      1652.3368      43.268517      60.208702    
   2356000   296.92418     -444048.59     -440512.72      1659.6545      37.40369       60.144822    
   2357000   296.19099     -444040.31     -440513.17      1664.7272      65.943143      60.161019    
   2358000   298.92088     -444072.59     -440512.94      1673.0612      66.489038      60.178645    
   2359000   301.31383     -444101.41     -440513.26      1677.5754      65.469492      60.193342    
   2360000   300.10131     -444086.72     -440513.01      1684.184       68.187715      60.215487    
   2361000   303.62752     -444129.03     -440513.33      1688.6932      79.792482      60.269567    
   2362000   304.28713     -444137.25     -440513.7       1693.6612      73.997839      60.307386    
   2363000   303.11469     -444122.69     -440513.1       1699.2944      58.037818      60.301151    
   2364000   299.2635      -444076.78     -440513.05      1703.6633      62.758959      60.307885    
   2365000   299.3156      -444078.25     -440513.9       1707.9032      59.242201      60.304973    
   2366000   296.85154     -444047.25     -440512.24      1713.6736      57.429986      60.29714     
   2367000   300.06293     -444086.19     -440512.94      1715.6012      62.159321      60.3022      
   2368000   298.90535     -444072.06     -440512.6       1717.7952      70.199726      60.329022    
   2369000   305.3821      -444149.56     -440512.97      1720.2332      60.144241      60.328523    
   2370000   297.34503     -444053.38     -440512.49      1726.8381      51.777023      60.305473    
   2371000   300.03314     -444086.12     -440513.23      1728.702       55.684132      60.29305     
   2372000   300.82489     -444095        -440512.68      1735.5936      66.753254      60.31037     
   2373000   300.2501      -444088.59     -440513.11      1742.7214      66.726888      60.327526    
   2374000   300.95685     -444097.56     -440513.67      1747.3548      80.944884      60.382506    
   2375000   296.96949     -444049.31     -440512.9       1749.212       77.948826      60.429225    
   2376000   298.40945     -444066.81     -440513.25      1750.4732      76.753704      60.472526    
   2377000   302.03734     -444109.94     -440513.18      1755.5558      81.344605      60.527743    
   2378000   298.78758     -444071.22     -440513.16      1757.8342      60.904341      60.528737    
   2379000   303.77539     -444131.91     -440514.45      1759.8251      56.967333      60.519364    
   2380000   296.9915      -444050.19     -440513.51      1767.7743      48.680423      60.488291    
   2381000   294.37097     -444017.75     -440512.28      1770.2718      52.612784      60.467675    
   2382000   298.12317     -444063.25     -440513.1       1775.6319      58.876091      60.463519    
   2383000   293.98408     -444014.03     -440513.17      1779.6871      58.530198      60.458484    
   2384000   294.44755     -444019.69     -440513.31      1787.7382      67.677745      60.477236    
   2385000   306.3306      -444161.28     -440513.39      1791.8691      62.580474      60.482685    
   2386000   295.51872     -444031.81     -440512.68      1799.439       54.845048      60.468117    
   2387000   295.33738     -444029.56     -440512.59      1804.9497      65.434139      60.480916    
   2388000   302.18671     -444111.91     -440513.37      1813.5626      77.257192      60.524043    
   2389000   302.99676     -444121.25     -440513.06      1818.107       65.730445      60.537392    
   2390000   301.29075     -444101.22     -440513.35      1821.6306      53.945763      60.520534    
   2391000   299.32594     -444077.56     -440513.09      1823.1208      63.336954      60.527719    
   2392000   300.54104     -444091.62     -440512.68      1827.0408      65.109261      60.539377    
   2393000   303.30745     -444124.88     -440512.99      1830.551       66.004735      60.553248    
   2394000   301.35174     -444101.47     -440512.87      1834.6866      76.094276      60.592592    
   2395000   292.75583     -443998.47     -440512.23      1836.7755      55.648223      60.580107    
   2396000   297.12651     -444051.75     -440513.47      1840.5005      50.625519      60.555032    
   2397000   297.19968     -444051.91     -440512.75      1842.6178      44.18024       60.513889    
   2398000   303.39953     -444125.62     -440512.64      1847.7045      50.496674      60.488784    
   2399000   295.18648     -444028.34     -440513.16      1853.2764      61.093462      60.490295    
   2400000   299.58156     -444080.25     -440512.73      1861.8232      38.841404      60.436308    
   2401000   299.93189     -444084        -440512.31      1866.8539      48.531836      60.406695    
   2402000   296.75356     -444046.19     -440512.35      1874.0189      45.611634      60.369983    
   2403000   298.12581     -444062.75     -440512.57      1878.5958      79.416173      60.417127    
   2404000   300.0983      -444086.44     -440512.77      1883.7294      68.307951      60.43661     
   2405000   298.93449     -444073.41     -440513.59      1885.385       58.277719      60.431293    
   2406000   297.07354     -444050.5      -440512.85      1890.5694      52.634366      60.412136    
   2407000   301.20623     -444100.47     -440513.6       1892.3857      62.702114      60.417748    
   2408000   294.9226      -444024.94     -440512.9       1899.6247      51.465084      60.395859    
   2409000   303.04152     -444122.34     -440513.62      1903.252       68.251865      60.41502     
   2410000   299.14036     -444075.56     -440513.3       1905.2249      75.023084      60.450563    
   2411000   298.51715     -444066.81     -440511.97      1907.2161      63.529586      60.458036    
   2412000   295.03726     -444025.91     -440512.5       1911.8552      68.281366      60.476979    
   2413000   298.56224     -444067.84     -440512.46      1919.0421      67.711213      60.494453    
   2414000   300.33759     -444089.34     -440512.82      1923.5899      72.463168      60.523293    
   2415000   302.54014     -444116.41     -440513.66      1925.2706      88.159829      60.589727    
   2416000   301.93621     -444108.22     -440512.66      1929.4458      81.096111      60.638903    
   2417000   298.63473     -444068.94     -440512.69      1935.3825      75.429758      60.674288    
   2418000   298.62399     -444069.19     -440513.07      1940.1125      71.605759      60.700377    
   2419000   299.93865     -444084.53     -440512.76      1946.1222      70.366202      60.723391    
   2420000   300.98434     -444097.81     -440513.59      1950.2932      83.574504      60.77767     
   2421000   300.30788     -444088.91     -440512.74      1955.5309      85.945966      60.83731     
   2422000   297.85668     -444060.44     -440513.46      1957.4078      81.873814      60.887042    
   2423000   301.21109     -444099.56     -440512.64      1959.3838      56.061334      60.87566     
   2424000   296.55923     -444044.12     -440512.6       1962.4546      50.975226      60.852365    
   2425000   301.85541     -444107        -440512.4       1965.446       61.585427      60.854086    
   2426000   297.21285     -444051.88     -440512.56      1972.3308      67.641593      60.869982    
   2427000   296.33584     -444041.38     -440512.51      1976.8411      73.341532      60.899121    
   2428000   301.43619     -444102.09     -440512.49      1984.8151      70.905106      60.922445    
   2429000   301.38216     -444101.62     -440512.66      1992.0562      56.185579      60.911429    
   2430000   303.12439     -444122.12     -440512.42      1996.5239      46.335937      60.877611    
   2431000   301.38168     -444101.31     -440512.36      2001.1506      45.917981      60.842982    
   2432000   300.97511     -444097.44     -440513.32      2006.2602      47.067622      60.811169    
   2433000   301.11838     -444099.47     -440513.65      2010.8501      52.954422      60.793065    
   2434000   298.31508     -444064.72     -440512.28      2015.394       45.247838      60.757329    
   2435000   295.72837     -444034.5      -440512.87      2020.9065      61.841272      60.759815    
   2436000   302.89176     -444120.5      -440513.56      2022.4541      63.681445      60.766501    
   2437000   297.58152     -444056.66     -440512.96      2026.8803      63.102291      60.771834    
   2438000   299.59681     -444080.41     -440512.71      2028.788       61.059664      60.77249     
   2439000   292.09791     -443990.56     -440512.16      2036.0657      55.386376      60.760248    
   2440000   303.82245     -444131.34     -440513.32      2040.3632      63.788899      60.767116    
   2441000   299.22961     -444076.69     -440513.36      2044.2852      62.407431      60.770827    
   2442000   299.58581     -444080.69     -440513.12      2049.3088      74.98354       60.80291     
   2443000   308.44967     -444186.69     -440513.57      2056.1189      69.710718      60.822973    
   2444000   301.02628     -444097.91     -440513.18      2061.1969      62.739402      60.827279    
   2445000   301.84596     -444108.72     -440514.24      2065.0056      67.001939      60.841124    
   2446000   302.80843     -444119.91     -440513.96      2070.3497      69.427593      60.860333    
   2447000   298.98934     -444073.19     -440512.72      2077.1384      68.383654      60.877126    
   2448000   298.47908     -444067.41     -440513.02      2081.3294      62.645999      60.881066    
   2449000   301.50303     -444103.5      -440513.1       2087.0686      51.061334      60.859244    
   2450000   297.91304     -444060.47     -440512.82      2089.2434      55.883612      60.848212    
   2451000   299.23459     -444076.59     -440513.21      2091.4736      53.25851       60.83142     
   2452000   302.61607     -444116.81     -440513.16      2099.1848      45.520292      60.797621    
   2453000   298.73992     -444070.53     -440513.04      2104.5816      70.885829      60.819842    
   2454000   300.51302     -444090.62     -440512.01      2106.0542      60.139769      60.818347    
   2455000   295.53354     -444032.16     -440512.84      2107.6148      55.337784      60.806328    
   2456000   296.37007     -444041.84     -440512.57      2112.0018      70.45853       60.827449    
   2457000   299.98112     -444084.19     -440511.91      2116.8319      61.756001      60.829476    
   2458000   300.67996     -444093.91     -440513.31      2123.7278      54.620266      60.815949    
   2459000   297.81813     -444059.09     -440512.58      2129.7564      63.261594      60.821265    
   2460000   300.55811     -444091.94     -440512.79      2135.3482      64.892344      60.830096    
   2461000   302.96975     -444121.12     -440513.26      2140.1792      66.457476      60.842277    
   2462000   297.93567     -444060.69     -440512.77      2148.3506      65.131697      60.851541    
   2463000   301.39186     -444103.19     -440514.11      2149.8384      69.085276      60.869286    
   2464000   295.52652     -444032.16     -440512.93      2154.0284      58.31698       60.863797    
   2465000   304.71453     -444141.88     -440513.23      2156.2942      55.955663      60.853265    
   2466000   300.00077     -444085.78     -440513.27      2162.6538      59.714576      60.850827    
   2467000   301.20404     -444100.16     -440513.32      2165.2148      60.331431      60.849717    
   2468000   303.2085      -444123.53     -440512.82      2174.2435      38.703738      60.802497    
   2469000   300.86151     -444096.66     -440513.9       2179.0187      43.079411      60.764788    
   2470000   303.81514     -444131.25     -440513.32      2184.5463      56.716219      60.756193    
   2471000   295.2711      -444028.41     -440512.22      2190.4109      61.531688      60.757836    
   2472000   300.829       -444095.25     -440512.88      2197.8497      56.746097      60.749354    
   2473000   303.22592     -444125.38     -440514.46      2200.0106      50.56433       60.727867    
   2474000   307.7467      -444177.66     -440512.91      2205.9119      43.101596      60.690759    
   2475000   296.17181     -444040.03     -440513.12      2210.6555      57.542725      60.684145    
   2476000   299.44237     -444078.12     -440512.26      2212.9568      63.794532      60.690666    
   2477000   301.56085     -444104.88     -440513.79      2218.8978      62.932556      60.695356    
   2478000   300.60126     -444092.44     -440512.78      2227.0516      71.333639      60.717566    
   2479000   296.79327     -444046.81     -440512.5       2232.4996      68.586907      60.73396     
   2480000   308.62258     -444189.47     -440514.29      2236.2931      79.156487      60.772261    
   2481000   300.49646     -444091.19     -440512.77      2242.517       71.949083      60.795449    
   2482000   298.5287      -444068.22     -440513.24      2244.374       67.661333      60.809664    
   2483000   302.16049     -444111.59     -440513.37      2254.0762      70.679392      60.830056    
   2484000   304.12777     -444135.09     -440513.44      2261.5663      72.323163      60.853753    
   2485000   297.40691     -444054.09     -440512.47      2265.5724      70.384624      60.873364    
   2486000   296.43011     -444042.66     -440512.67      2266.9301      61.949974      60.875575    
   2487000   301.06375     -444098.25     -440513.08      2269.2004      61.541982      60.87694     
   2488000   299.82233     -444083.12     -440512.74      2273.8461      72.104431      60.8999      
   2489000   303.13043     -444122.91     -440513.13      2283.1014      72.698446      60.923979    
   2490000   300.16128     -444087.16     -440512.73      2286.7318      58.035345      60.918096    
   2491000   297.80749     -444059        -440512.61      2293.1054      49.92995       60.895762    
   2492000   298.12973     -444063.16     -440512.93      2297.3503      49.253408      60.872147    
   2493000   301.4987      -444103        -440512.65      2306.215       53.041595      60.856296    
   2494000   298.64248     -444069.12     -440512.79      2310.302       65.91828       60.866522    
   2495000   300.30052     -444089.41     -440513.33      2316.4843      71.510783      60.887982    
   2496000   300.55434     -444092.25     -440513.15      2323.6621      52.770475      60.871649    
   2497000   302.17179     -444111.34     -440512.98      2329.2859      57.300767      60.864479    
   2498000   297.89409     -444060.28     -440512.86      2332.863       72.635414      60.888068    
   2499000   298.60759     -444067.31     -440511.39      2335.2818      73.272064      60.912836    
   2500000   295.11783     -444026.53     -440512.17      2342.3375      67.840529      60.926663    
Loop time of 12903.2 on 1 procs for 500000 steps with 3996 atoms

Performance: 1.674 ns/day, 14.337 hours/ns, 38.750 timesteps/s, 154.845 katom-step/s
99.9% CPU use with 1 MPI tasks x 1 OpenMP threads

MPI task timing breakdown:
Section |  min time  |  avg time  |  max time  |%varavg| %total
---------------------------------------------------------------
Pair    | 12356      | 12356      | 12356      |   0.0 | 95.76
Bond    | 0.18578    | 0.18578    | 0.18578    |   0.0 |  0.00
Neigh   | 17.359     | 17.359     | 17.359     |   0.0 |  0.13
Comm    | 11.372     | 11.372     | 11.372     |   0.0 |  0.09
Output  | 0.11957    | 0.11957    | 0.11957    |   0.0 |  0.00
Modify  | 489.77     | 489.77     | 489.77     |   0.0 |  3.80
Other   |            | 28.82      |            |       |  0.22

Nlocal:           3996 ave        3996 max        3996 min
Histogram: 1 0 0 0 0 0 0 0 0 0
Nghost:          16319 ave       16319 max       16319 min
Histogram: 1 0 0 0 0 0 0 0 0 0
Neighs:              0 ave           0 max           0 min
Histogram: 1 0 0 0 0 0 0 0 0 0
FullNghs:  3.16336e+06 ave 3.16336e+06 max 3.16336e+06 min
Histogram: 1 0 0 0 0 0 0 0 0 0

Total # of neighbors = 3163358
Ave neighs/atom = 791.63113
Ave special neighs/atom = 0
Neighbor list builds = 5633
Dangerous builds = 0
write_restart   kappa_restart_5
System init for write_restart ...
Total wall time: 3:35:04
